26

c -1.2415469863838304	 -1.4008619985137527	 0.0
c -1.2415989829351899	 -2.8035429981373228	 0.0
c -0.0416459906642027	 -3.5140179989809686	 0.0
c 1.1747189973327736	 -2.832151000291136	 0.0
c 1.2079720040251636	 -1.4298449995606408	 0.0
c -0.008432996162917376	 -0.7084269995811705	 0.0
c 2.420721999240193	 -0.7274170000829353	 0.0
c 2.4372009891718425	 0.6698299988180728	 0.0
c 1.2415319829961464	 1.4008589981439763	 0.0
c 0.008419003703439527	 0.708422000404242	 0.0
c -1.207985996484641	 1.4298390003837125	 0.0
c -2.420634980881142	 0.7274070020868831	 0.0
c -2.43721498163132	 -0.6698349979950011	 0.0
c 1.2415839795475059	 2.803539997767546	 0.0
c 0.04162897634831538	 3.5140189974183444	 0.0
c -1.1747350115393824	 2.8321509987404405	 0.0
c -2.1972419741016895	 -3.3482869971731186	 0.0
c -0.05465398718594482	 -4.613940998601305	 0.0
c 2.117184982366595	 -3.399387001924741	 0.0
c 3.3704760035827284	 -1.282364999608934	 0.0
c 3.399827986107983	 1.202135998483643	 0.0
c -3.370378967957153	 1.2823710034975768	 0.0
c -3.3998599784581223	 -1.2021069976486367	 0.0
c 2.1972279794565694	 3.3482829977576203	 0.0
c 0.05463796423676813	 4.613941996096331	 0.0
c -2.1172020139490524	 3.3993859984774173	 0.0
