108
  -182.93137753
    C           3.36243828          -0.31503999          -1.20672064
    C           3.54377174          -0.53835418           0.11620786
    C           2.47678020          -0.50523925           0.94686443
    C           1.24425353          -0.25413759           0.47894152
    C           1.06300454          -0.03094139          -0.84328106
    C           2.11783426          -0.06307007          -1.67249886
    C          -0.17875820           0.21914676          -1.30333333
    C          -0.35926060           0.44111457          -2.62031686
    C           0.69946059           0.40852111          -3.44852614
    C           1.93484535           0.16002626          -2.99431959
    C           4.41218775          -0.34125205          -2.06027195
    C           5.64411418          -0.59532591          -1.56258634
    C           5.82431906          -0.81725951          -0.24756654
    C           4.77803640          -0.79197478           0.60951173
    C           2.65622465          -0.72848700           2.26915334
    C           1.59497997          -0.69454100           3.08586289
    C           0.35887284          -0.44348424           2.61991505
    C           0.17841858          -0.22086355           1.30307429
    C           4.97014311          -1.01997367           1.95070854
    C           3.88935346          -0.98218976           2.75858659
    C          -1.06301586           0.03032317           0.84315886
    C          -1.24422781           0.25353816          -0.47907973
    C           2.98447190           0.13247930          -3.84395836
    C           4.23618282          -0.11582752          -3.40407682
    C           6.19154424          -1.27783141           2.48052040
    C           6.34665918          -1.50080400           3.82142580
    C           5.27418271          -1.46539253           4.63674710
    C           4.04731168          -1.20472094           4.09489043
    C           2.98992645          -1.17419576           4.92994507
    C           2.77717136           0.35996980          -5.17268759
    C           3.80681651           0.34264805          -6.07080686
    C           5.05272082           0.09392284          -5.62115959
    C           5.26380698          -0.13457587          -4.28885837
    C           0.50694168           0.63476411          -4.78377724
    C           1.54070748           0.61111832          -5.64595040
    C          -1.59531354           0.69200277          -3.08615195
    C          -1.76920580           0.91585838          -4.42439199
    C          -0.72297660           0.88769291          -5.27248500
    C          -2.47689736           0.50475300          -0.94700772
    C          -2.65631350           0.72729351          -2.26929083
    C          -3.88942297           0.98178068          -2.75850911
    C          -4.04745112           1.20284274          -4.09509874
    C          -2.99076167           1.17060112          -4.93046162
    C          -3.54365850           0.53901766          -0.11612158
    C          -4.77758571           0.79465443          -0.60915018
    C          -4.96964712           1.02175532          -1.95036165
    C          -2.11790658           0.06264024           1.67247854
    C          -3.36235979           0.31578045           1.20681996
    C          -1.93497504          -0.16107700           2.99403933
    C          -2.98463100          -0.13249029           3.84394784
    C          -4.23576605           0.11818180           3.40433220
    C          -4.41169840           0.34405782           2.06070606
    C          -0.69987500          -0.41100768           3.44815952
    C          -6.19109122           1.28070059          -2.48015752
    C          -6.34655242           1.50192723          -3.82120291
    C          -5.27438115           1.46401802          -4.63694216
    C          -5.64344466           0.60013890           1.56321591
    C          -5.82360643           0.82219975           0.24835781
    C          -2.77733227          -0.36118914           5.17246808
    C          -3.80683742          -0.34273937           6.07069327
    C          -5.05237291          -0.09125675           5.62143948
    C          -5.26331099           0.13856049           4.28949723
    C          -0.50728049          -0.63838594           4.78331710
    C          -1.54133541          -0.61428815           5.64539589
    C           1.76896119          -0.91961080           4.42395123
    C           0.72197153          -0.89207138           5.27183031
    H           6.53378848          -0.63836037          -2.14844543
    H           6.83351368          -1.00737013           0.03878968
    H           7.09919635          -1.32813171           1.92651043
    H           7.31850199          -1.70340379           4.22417682
    H           5.39553568          -1.63953286           5.68329646
    H           3.11783979          -1.34904687           5.97580928
    H           3.64229155           0.52098735          -7.11066720
    H           5.87538609           0.07555484          -6.30707835
    H           6.28179698          -0.32035342          -4.03849782
    H           1.38245248           0.78872062          -6.68713923
    H          -0.86591928           1.06337145          -6.31587289
    H          -3.11857170           1.34422137          -5.97647074
    H          -7.09882833           1.33040704          -1.92609900
    H          -7.31825710           1.70503786          -4.22386281
    H          -5.39592239           1.63659022          -5.68363451
    H          -6.53329683           0.64151493           2.14892056
    H          -6.83255505           1.01385812          -0.03777646
    H          -3.64230357          -0.52129343           7.11054658
    H          -5.87512847          -0.07344910           6.30733109
    H          -6.28130120           0.32379259           4.03899999
    H          -1.38280374          -0.79082658           6.68677236
    H           0.86547970          -1.06638926           6.31541376
    C           8.55592392           6.10273537           4.60433492
    C           9.43361121           7.14405025           4.61531755
    C           8.97819247           8.43370705           4.52897731
    C           7.62947407           8.64373854           4.43122440
    C           6.75843979           7.59311863           4.42294504
    C           7.21006807           6.32962115           4.51674084
    C           5.18117155           5.01558691           4.44109011
    C           2.94880414           5.05169006           4.28710423
    C           3.19425654           4.01159772           4.34215073
    S           4.05967813           6.19524902           4.30955327
    S           4.67272452           3.44881807           4.46768629
    C           6.43865155           5.15638901           4.49277735
    H           8.93247418           5.10530481           4.68275033
    H          10.48460967           6.95614284           4.68399398
    H           9.66066902           9.25472148           4.52819078
    H           7.25430576           9.64201935           4.35344737
    H           5.71195607           7.78419273           4.33517292
    H           1.90025677           5.52989608           4.18555468
    H           2.42978177           3.11307762           4.34461796
    H           6.63846536           4.90238391           3.48377567
