108
  -182.95462364
    C           3.36094556          -0.31487356          -1.20643189
    C           3.54224289          -0.53817324           0.11640511
    C           2.47834312          -0.50564355           0.94792023
    C           1.24324955          -0.25373999           0.47731951
    C           1.06250322          -0.03113464          -0.84139403
    C           2.11903202          -0.06302935          -1.67395572
    C          -0.17881736           0.21922326          -1.30384669
    C          -0.35912793           0.44096637          -2.61938471
    C           0.69840078           0.40902964          -3.45089607
    C           1.93620848           0.15963249          -2.99297540
    C           4.40630826          -0.33975182          -2.06449394
    C           5.62902170          -0.59387966          -1.55750457
    C           5.80849527          -0.81492902          -0.24776145
    C           4.77355328          -0.79219322           0.61537959
    C           2.65714819          -0.72840038           2.26747025
    C           1.59458910          -0.69489246           3.08840594
    C           0.35877540          -0.44334421           2.61901448
    C           0.17851483          -0.22097425           1.30359240
    C           4.96400461          -1.01836521           1.94579271
    C           3.88830772          -0.98215682           2.75919420
    C          -1.06252301           0.03053003           0.84129264
    C          -1.24325347           0.25315333          -0.47742798
    C           2.98333588           0.13270029          -3.84428106
    C           4.23170706          -0.11615193          -3.39749654
    C           6.17688260          -1.27678917           2.48769587
    C           6.33469408          -1.49793806           3.81376347
    C           5.26458978          -1.46184403           4.62206744
    C           4.04719820          -1.20364298           4.08762749
    C           2.98802944          -1.17158323           4.91380011
    C           2.77906860           0.35866958          -5.16576126
    C           3.80158881           0.34088189          -6.05375221
    C           5.04330921           0.09365492          -5.61009375
    C           5.24790352          -0.13190918          -4.29118904
    C           0.50808168           0.63327334          -4.77481352
    C           1.54313058           0.60837830          -5.62985308
    C          -1.59494382           0.69234087          -3.08875100
    C          -1.76791815           0.91434792          -4.41543557
    C          -0.72071772           0.88495242          -5.25621561
    C          -2.47843165           0.50513816          -0.94801465
    C          -2.65726991           0.72718735          -2.26760529
    C          -3.88840756           0.98172164          -2.75916849
    C          -4.04741253           1.20177508          -4.08786521
    C          -2.98874004           1.16791478          -4.91429634
    C          -3.54213973           0.53882526          -0.11630857
    C          -4.77312335           0.79485170          -0.61499484
    C          -4.96361710           1.02013459          -1.94545582
    C          -2.11910927           0.06260827           1.67390994
    C          -3.36084678           0.31558987           1.20653523
    C          -1.93634284          -0.16068034           2.99274333
    C          -2.98342938          -0.13270564           3.84421712
    C          -4.23131830           0.11849647           3.39776264
    C          -4.40585813           0.34257225           2.06490486
    C          -0.69877953          -0.41150577           3.45049055
    C          -6.17647294           1.27964160          -2.48727869
    C          -6.33457268           1.49901282          -3.81352756
    C          -5.26481203           1.46041855          -4.62221838
    C          -5.62833661           0.59870827           1.55816889
    C          -5.80778611           0.81982399           0.24852644
    C          -2.77922786          -0.35986638           5.16552179
    C          -3.80163240          -0.34101260           6.05367692
    C          -5.04296438          -0.09098275           5.61042368
    C          -5.24737160           0.13591073           4.29179736
    C          -0.50847759          -0.63684605           4.77424747
    C          -1.54372694          -0.61159745           5.62933853
    C           1.76753625          -0.91806484           4.41488744
    C           0.71985781          -0.88942415           5.25556760
    H           6.53582740          -0.63875148          -2.14781418
    H           6.83529332          -1.00744023           0.03755131
    H           7.10119782          -1.32859075           1.92768242
    H           7.32016032          -1.70381284           4.22535376
    H           5.39685562          -1.63994898           5.68489263
    H           3.11808376          -1.34931693           5.97756105
    H           3.64311625           0.52115840          -7.11261566
    H           5.87666443           0.07561420          -6.30872115
    H           6.28338943          -0.32032493          -4.04023418
    H           1.38221136           0.78901937          -6.68889188
    H          -0.86615390           1.06366484          -6.31758720
    H          -3.11881087           1.34451905          -5.97822215
    H          -7.10081921           1.33084960          -1.92727791
    H          -7.31991857           1.70546414          -4.22503933
    H          -5.39723342           1.63702525          -5.68524397
    H          -6.53533571           0.64187698           2.14827867
    H          -6.83433019           1.01394477          -0.03653613
    H          -3.64312776          -0.52143275           7.11248686
    H          -5.87640052          -0.07351944           6.30896637
    H          -6.28289412           0.32374338           4.04073683
    H          -1.38256056          -0.79107786           6.68852815
    H           0.86571972          -1.06662354           6.31713822
    C           0.89352831           7.02412956           0.07026601
    C          -0.42883722           7.22215572           0.27111928
    C          -0.94179332           7.17878068           1.52408102
    C          -0.10306340           6.93383930           2.55807309
    C           1.21923293           6.73821981           2.34199833
    C           1.74471602           6.78242369           1.10302621
    C           4.13278765           6.34802134           1.48066567
    C           5.69543523           5.92884443           3.01577232
    C           6.26347295           5.93777523           1.98008479
    S           4.19592922           6.17697740           3.01543666
    S           5.47768854           6.19988355           0.71146663
    C           3.06695986           6.58703602           0.75762127
    H           1.28148498           7.07331252          -0.94128626
    H          -1.08342129           7.40807307          -0.57396125
    H          -2.00179875           7.32725723           1.69379091
    H          -0.49546750           6.88572530           3.56815511
    H           1.86488900           6.53441425           3.18831034
    H           6.09293723           5.76287332           3.89899843
    H           7.23583310           5.79999152           1.85277830
    H           2.94199843           5.59034565           0.40364389
