108
  -184.05796210
    C           3.52748360          -0.32926025          -1.26086989
    C           3.71066764          -0.60260311           0.11701295
    C           2.58058039          -0.65186287           0.98583726
    C           1.29804344          -0.32610474           0.49849497
    C           1.11552815          -0.03217382          -0.88299181
    C           2.21874594          -0.06215131          -1.76078799
    C          -0.18677081           0.24255859          -1.38108329
    C          -0.37828182           0.46996525          -2.76777302
    C           0.72333204           0.43521226          -3.64806015
    C           2.01187446           0.17312513          -3.15029449
    C           4.63696530          -0.35217272          -2.14080613
    C           5.91095409          -0.61911920          -1.61879101
    C           6.09545627          -0.84258335          -0.27302701
    C           5.01280235          -0.83924086           0.61922494
    C           2.74666871          -0.95713224           2.36983019
    C           1.64358519          -0.91821695           3.24659412
    C           0.36747070          -0.56451504           2.75851825
    C           0.18449409          -0.28148478           1.37941531
    C           5.17541935          -1.08595224           2.03726666
    C           4.04922468          -1.12910131           2.88867211
    C          -1.11000273           0.03808535           0.88895530
    C          -1.30108858           0.27454530          -0.50160500
    C           3.11343646           0.14307640          -4.03483886
    C           4.41417487          -0.11502551          -3.55214389
    C           6.43511141          -1.31578309           2.58062022
    C           6.60248122          -1.54934974           3.95134125
    C           5.51793421          -1.51401906           4.79793769
    C           4.22018229          -1.30429875           4.29387516
    C           3.12134488          -1.28905546           5.16183730
    C           2.89516644           0.38108978          -5.42279685
    C           3.99582820           0.35043271          -6.29880313
    C           5.26239963           0.09451029          -5.82332297
    C           5.46975669          -0.13692084          -4.45786118
    C           0.52178936           0.67199498          -5.04745768
    C           1.61061404           0.64150386          -5.91429960
    C          -1.67057443           0.73047330          -3.26962473
    C          -1.85403915           0.96446233          -4.67209256
    C          -0.75962335           0.93298596          -5.54031330
    C          -2.59505026           0.53158967          -1.00117358
    C          -2.77104351           0.76263430          -2.39530531
    C          -4.06329562           1.02852272          -2.90147145
    C          -4.22711943           1.25943931          -4.29811489
    C          -3.12934144           1.22553043          -5.16578250
    C          -3.71587572           0.56444996          -0.11977857
    C          -5.01316001           0.83085032          -0.61937846
    C          -5.17909559           1.06586830          -2.03855692
    C          -2.21533048           0.07091142           1.76389536
    C          -3.52575063           0.33236497           1.26423399
    C          -2.00806461          -0.16226748           3.15307995
    C          -3.11206045          -0.13481863           4.03579045
    C          -4.41291203           0.12246777           3.55358474
    C          -4.63487490           0.36404016           2.14318822
    C          -0.72391231          -0.45312610           3.64647325
    C          -6.43329516           1.33042916          -2.57921367
    C          -6.60108544           1.55828185          -3.95032004
    C          -5.51594339           1.52359788          -4.79701455
    C          -5.90910453           0.62980261           1.62035158
    C          -6.09327574           0.85786674           0.27517405
    C          -2.89560338          -0.37789349           5.42290443
    C          -3.99655095          -0.34922860           6.29860902
    C          -5.26310936          -0.09121277           5.82344062
    C          -5.47002472           0.14183470           4.45864970
    C          -0.52298913          -0.67927799           5.04739957
    C          -1.61054314          -0.63597465           5.91507264
    C           1.83638040          -1.08623136           4.65907287
    C           0.75464812          -0.96502144           5.53679447
    H           6.75877656          -0.64803288          -2.30511950
    H           7.09186822          -1.05209673           0.11847627
    H           7.27195053          -1.33746571           1.89623266
    H           7.59607554          -1.76067683           4.32852180
    H           5.55362606          -1.68012844           5.86908972
    H           3.21579353          -1.39507861           6.24154523
    H           3.74040989           0.54030247          -7.33510364
    H           6.11302243           0.06858735          -6.49351412
    H           6.45465626          -0.34069434          -4.06077184
    H           1.40399436           0.82693113          -6.96711861
    H          -0.90553697           1.11195285          -6.60371527
    H          -3.21426473           1.39678737          -6.23759968
    H          -7.26962526           1.35172533          -1.89430285
    H          -7.59540084           1.76120183          -4.32875907
    H          -5.54974631           1.68680622          -5.86814607
    H          -6.75756111           0.65269436           2.30478011
    H          -7.08931461           1.06358912          -0.11777394
    H          -3.74094201          -0.54081029           7.33463232
    H          -6.11356745          -0.06532717           6.49388582
    H          -6.45471192           0.34648900           4.06150398
    H          -1.40591784          -0.82934344           6.96685135
    H           0.90449401          -1.10267677           6.60587758
    C           4.08260597           3.15190880          -1.68771063
    C           4.84711987           3.74284706          -2.67205984
    C           6.00942418           4.41817355          -2.29739187
    C           6.43615518           4.45145145          -0.96879522
    C           5.67410374           3.83921856           0.00471198
    C           4.44059100           3.27651185          -0.33719502
    C           3.61839042           2.60740088           1.91942863
    C           4.19342374           2.38555889           4.46150531
    C           2.97724847           1.88015210           4.33656504
    S           4.97237525           2.83155004           2.99322987
    S           2.26807292           1.97323338           2.79631894
    C           3.43367823           2.95352203           0.63978865
    H           3.13912909           2.64732047          -1.89074241
    H           4.50066056           3.72710977          -3.70763648
    H           6.59845473           4.91633829          -3.04713779
    H           7.32138225           5.01361992          -0.67746277
    H           5.95624099           3.91796149           1.04915429
    H           4.72850003           2.53911382           5.37446518
    H           2.39120381           1.34666586           5.04944180
    H           2.41787238           2.99733191           0.25949076
