108
  -183.16210067
    C           3.36568436          -0.31534175          -1.20777368
    C           3.54714671          -0.53883627           0.11621884
    C           2.47721215          -0.50530088           0.94686159
    C           1.24440883          -0.25419298           0.47898906
    C           1.06314844          -0.03096793          -0.84338162
    C           2.11824224          -0.06310805          -1.67262732
    C          -0.17881855           0.21922922          -1.30371099
    C          -0.35935988           0.44121581          -2.62097796
    C           0.69881698           0.40940860          -3.45387435
    C           1.93534708           0.16007858          -2.99520926
    C           4.42330575          -0.34316663          -2.05843998
    C           5.66084054          -0.59734319          -1.56532347
    C           5.84106651          -0.81929820          -0.25012081
    C           4.78819967          -0.79269296           0.60431101
    C           2.65693155          -0.72871254           2.26986683
    C           1.59577256          -0.69548515           3.09120082
    C           0.35895562          -0.44362279           2.62060532
    C           0.17845789          -0.22091146           1.30346651
    C           4.98098713          -1.02195570           1.95343766
    C           3.89274479          -0.98338726           2.76322991
    C          -1.06313871           0.03032157           0.84326193
    C          -1.24438588           0.25356598          -0.47913101
    C           2.98650051           0.13298714          -3.84944149
    C           4.24582749          -0.11634892          -3.41004250
    C           6.20744783          -1.28013526           2.48062163
    C           6.35762370          -1.50323905           3.82717709
    C           5.28631250          -1.46881501           4.64791583
    C           4.05166608          -1.20715731           4.10687000
    C           2.99278209          -1.17706022           4.94627513
    C           2.77817898           0.36171811          -5.18551484
    C           3.81547075           0.34353068          -6.08525046
    C           5.06167737           0.09394051          -5.63005710
    C           5.27903618          -0.13604676          -4.29386694
    C           0.50540197           0.63668947          -4.79528391
    C           1.53908106           0.61380733          -5.66248155
    C          -1.59612032           0.69289971          -3.09146705
    C          -1.77079233           0.91778726          -4.43588263
    C          -0.72526776           0.89047205          -5.28898521
    C          -2.47733349           0.50480536          -0.94700043
    C          -2.65702583           0.72750015          -2.26998042
    C          -3.89283685           0.98297883          -2.76310802
    C          -4.05185754           1.20525513          -4.10707746
    C          -2.99368217           1.17344187          -4.94678827
    C          -3.54705302           0.53951874          -0.11613450
    C          -4.78772020           0.79540134          -0.60394233
    C          -4.98043506           1.02375631          -1.95306519
    C          -2.11833789           0.06268010           1.67261292
    C          -3.36559419           0.31611810           1.20788949
    C          -1.93546871          -0.16114669           2.99493978
    C          -2.98664811          -0.13300641           3.84939328
    C          -4.24534640           0.11872673           3.41025911
    C          -4.42281142           0.34597441           2.05886907
    C          -0.69920944          -0.41194386           3.45348562
    C          -6.20702752           1.28301165          -2.48027372
    C          -6.35752729           1.50441062          -3.82694901
    C          -5.28655199           1.46748468          -4.64811679
    C          -5.66018902           0.60213960           1.56592721
    C          -5.84036181           0.82430652           0.25093731
    C          -2.77829047          -0.36295820           5.18529588
    C          -3.81546962          -0.34357093           6.08516211
    C          -5.06135227          -0.09128989           5.63033647
    C          -5.27849355           0.13998321           4.29453207
    C          -0.50568257          -0.64034890           4.79476107
    C          -1.53977132          -0.61693806           5.66192266
    C           1.77052290          -0.92157625           4.43540177
    C           0.72419021          -0.89481666           5.28831358
    H           6.53592965          -0.63798099          -2.15319195
    H           6.83684637          -1.00845580           0.04266715
    H           7.10160422          -1.32773790           1.92132482
    H           7.32158272          -1.70395375           4.22467436
    H           5.39469467          -1.64001446           5.68718210
    H           3.11832853          -1.34973618           5.97979996
    H           3.64044426           0.52176327          -7.11413123
    H           5.87818954           0.07534734          -6.30850585
    H           6.28546867          -0.32152875          -4.03429226
    H           1.38185353           0.78939139          -6.69112279
    H          -0.86648527           1.06405638          -6.31998627
    H          -3.11907091           1.34488363          -5.98047958
    H          -7.10120098           1.33002367          -1.92093119
    H          -7.32131799           1.70555502          -4.22436299
    H          -5.39508599           1.63703883          -5.68753301
    H          -6.53542057           0.64117060           2.15366101
    H          -6.83586775           1.01491555          -0.04165429
    H          -3.64046163          -0.52210783           7.11400958
    H          -5.87791842          -0.07322428           6.30875734
    H          -6.28496104           0.32499525           4.03479707
    H          -1.38221512          -0.79154286           6.69074825
    H           0.86602800          -1.06712627           6.31951138
    C           9.99340195           7.00216336           4.62809152
    C          10.79718124           8.07754667           4.87393564
    C          10.24723399           9.32432161           5.08537661
    C           8.87934160           9.46002079           5.04146742
    C           8.07218180           8.38070595           4.79812348
    C           8.62858795           7.16151714           4.60704534
    C           6.68839586           5.75614790           4.24043175
    C           4.38465373           5.76621543           4.11066843
    C           4.76904242           4.53512101           3.88409585
    S           5.49484469           6.92117204           4.39280208
    S           6.33740251           4.13407458           3.89238246
    C           7.97426840           5.95965869           4.29729085
    H          10.42750342           6.04314947           4.47629188
    H          11.85281478           7.95316645           4.89576618
    H          10.87027045          10.16667248           5.26930304
    H           8.43672177          10.41394201           5.19254964
    H           7.02226786           8.50289162           4.75560399
    H           3.33415871           6.08725306           4.10575753
    H           4.04164653           3.70172734           3.70238439
    H           8.14679053           5.94266927           3.25782148
