108
  -183.32336229
    C           3.36600145          -0.31534948          -1.20779623
    C           3.54747791          -0.53882746           0.11618586
    C           2.47714734          -0.50526236           0.94689109
    C           1.24444441          -0.25418449           0.47898785
    C           1.06319009          -0.03096620          -0.84337452
    C           2.11818023          -0.06308777          -1.67260343
    C          -0.17879345           0.21924523          -1.30380388
    C          -0.35934112           0.44121060          -2.62095089
    C           0.69901576           0.40944055          -3.45427359
    C           1.93546947           0.16006858          -2.99521904
    C           4.42403759          -0.34327205          -2.05823504
    C           5.66209911          -0.59741313          -1.56544377
    C           5.84232832          -0.81931716          -0.25028343
    C           4.78886356          -0.79264589           0.60394939
    C           2.65706015          -0.72869967           2.26984333
    C           1.59614142          -0.69556750           3.09148115
    C           0.35898652          -0.44360916           2.62056053
    C           0.17853049          -0.22092143           1.30354997
    C           4.98212771          -1.02206458           1.95359049
    C           3.89355418          -0.98349402           2.76343582
    C          -1.06323906           0.03034189           0.84326487
    C          -1.24445293           0.25357540          -0.47910339
    C           2.98710872           0.13297330          -3.84990842
    C           4.24686930          -0.11641826          -3.41051551
    C           6.20945608          -1.28023399           2.48008272
    C           6.35863237          -1.50332781           3.82717102
    C           5.28756436          -1.46907694           4.64868712
    C           4.05272534          -1.20737387           4.10738439
    C           2.99327509          -1.17731152           4.94778789
    C           2.77895543           0.36173222          -5.18638386
    C           3.81636473           0.34356954          -6.08635017
    C           5.06258992           0.09386364          -5.63038570
    C           5.28092477          -0.13628433          -4.29398599
    C           0.50565706           0.63680986          -4.79635133
    C           1.53902233           0.61404563          -5.66398255
    C          -1.59644056           0.69299679          -3.09180205
    C          -1.77142167           0.91801427          -4.43680347
    C          -0.72541646           0.89075441          -5.29071631
    C          -2.47724193           0.50478893          -0.94697499
    C          -2.65717060           0.72752651          -2.27000059
    C          -3.89350259           0.98311993          -2.76339559
    C          -4.05285688           1.20548639          -4.10764676
    C          -2.99392151           1.17369853          -4.94825915
    C          -3.54732513           0.53955155          -0.11607604
    C          -4.78840584           0.79543870          -0.60351286
    C          -4.98164641           1.02395897          -1.95325801
    C          -2.11821456           0.06267935           1.67252368
    C          -3.36588370           0.31615885           1.20792194
    C          -1.93561914          -0.16112845           2.99500237
    C          -2.98724677          -0.13298943           3.84989217
    C          -4.24654731           0.11881103           3.41083669
    C          -4.42354930           0.34611523           2.05863930
    C          -0.69944155          -0.41196740           3.45391352
    C          -6.20883934           1.28321210          -2.47975615
    C          -6.35847420           1.50455992          -3.82702203
    C          -5.28770115           1.46776978          -4.64887733
    C          -5.66134941           0.60228329           1.56613988
    C          -5.84154252           0.82446698           0.25108464
    C          -2.77923331          -0.36293841           5.18613065
    C          -3.81643993          -0.34358079           6.08627540
    C          -5.06224514          -0.09120940           5.63068302
    C          -5.28053772           0.14030639           4.29451627
    C          -0.50619618          -0.64042783           4.79585511
    C          -1.53954749          -0.61718786           5.66348834
    C           1.77105792          -0.92177856           4.43631658
    C           0.72465806          -0.89513073           5.29013753
    H           6.53609702          -0.63794229          -2.15355573
    H           6.83710679          -1.00849784           0.04298024
    H           7.10202614          -1.32767592           1.92079338
    H           7.32180580          -1.70397853           4.22470555
    H           5.39463137          -1.64005363           5.68750000
    H           3.11837478          -1.34981912           5.98027737
    H           3.64029940           0.52182310          -7.11441799
    H           5.87840254           0.07532887          -6.30861797
    H           6.28600801          -0.32166711          -4.03391244
    H           1.38177255           0.78946806          -6.69158275
    H          -0.86656593           1.06415086          -6.32056399
    H          -3.11912051           1.34495569          -5.98094173
    H          -7.10163668           1.33000530          -1.92039714
    H          -7.32156508           1.70559322          -4.22440218
    H          -5.39502950           1.63707444          -5.68784474
    H          -6.53560095           0.64113793           2.15403070
    H          -6.83613939           1.01499374          -0.04195420
    H          -3.64032295          -0.52218220           7.11429570
    H          -5.87814729          -0.07321488           6.30887052
    H          -6.28553419           0.32512858           4.03441492
    H          -1.38213835          -0.79163613           6.69121520
    H           0.86610678          -1.06723411           6.32010450
    C           6.35859751           3.60334216           1.47059152
    C           7.55407494           3.08021054           1.07275433
    C           8.65766032           3.15252033           1.89609328
    C           8.52636943           3.76391270           3.12360069
    C           7.32513644           4.27746625           3.53004611
    C           6.24248071           4.17952736           2.71158202
    C           4.50728481           5.27328185           4.01600301
    C           4.09839399           6.34892453           6.00699112
    C           2.97111557           6.35296964           5.32953187
    S           5.42160045           5.66573783           5.35997700
    S           2.88548876           5.68954269           3.85672697
    C           4.99989707           4.72458777           2.94469287
    H           5.51150738           3.53099543           0.83492211
    H           7.63527832           2.62116983           0.11706297
    H           9.59395881           2.75414740           1.58437015
    H           9.36935641           3.83610838           3.76843549
    H           7.24818932           4.75837589           4.46956435
    H           4.20650879           6.79910729           7.01113612
    H           2.02108650           6.79868903           5.74170177
    H           5.03725219           5.57991971           2.34352256
