108
  -184.07250549
    C           3.51136226          -0.40409502          -1.28012669
    C           3.70101249          -0.64947976           0.11357479
    C           2.59201356          -0.55682775           1.00450914
    C           1.30126898          -0.26695463           0.50781687
    C           1.10992342          -0.03024150          -0.88834383
    C           2.21245620          -0.08018497          -1.77073903
    C          -0.19188560           0.23939308          -1.38698433
    C          -0.38175244           0.46940703          -2.77579206
    C           0.72613922           0.44040925          -3.65811230
    C           2.01817570           0.17255871          -3.16188781
    C           4.61761909          -0.45013784          -2.17187907
    C           5.87151190          -0.77594024          -1.64259751
    C           6.05272202          -1.02136863          -0.29674309
    C           4.99527907          -0.94783297           0.61749292
    C           2.78031657          -0.77377059           2.40243668
    C           1.67767766          -0.72924260           3.27994511
    C           0.37986804          -0.46544888           2.77699021
    C           0.18906807          -0.22767053           1.38957210
    C           5.19644614          -1.11649817           2.04733724
    C           4.07794419          -1.04396406           2.91537257
    C          -1.11423878           0.03497208           0.89006492
    C          -1.30585445           0.26973146          -0.50660877
    C           3.12300206           0.14283090          -4.05542882
    C           4.42757620          -0.14497252          -3.58106422
    C           6.45504746          -1.34306564           2.60658290
    C           6.63459593          -1.55217505           3.97384840
    C           5.55698627          -1.52461987           4.82272980
    C           4.26108120          -1.25857989           4.31753759
    C           3.15358408          -1.22582901           5.17141394
    C           2.92128435           0.38818125          -5.45020878
    C           4.02545397           0.35403016          -6.33613797
    C           5.28593526           0.10212509          -5.85579112
    C           5.48157342          -0.13731542          -4.49580448
    C           0.52870175           0.67492916          -5.06245604
    C           1.63103591           0.64310273          -5.92624548
    C          -1.67914770           0.73213938          -3.27865543
    C          -1.86621822           0.96798268          -4.68427511
    C          -0.76112911           0.93295938          -5.54457498
    C          -2.60095220           0.53199678          -1.00702190
    C          -2.78401122           0.76556403          -2.40281524
    C          -4.08135456           1.03356625          -2.91688037
    C          -4.26055025           1.26715333          -4.31680274
    C          -3.15334953           1.23005693          -5.17072737
    C          -3.72173257           0.56631824          -0.12436743
    C          -5.02050768           0.83380568          -0.63214295
    C          -5.20629608           1.07209872          -2.05471531
    C          -2.22042004           0.06375342           1.76856081
    C          -3.53066131           0.33069136           1.26985457
    C          -2.02134669          -0.17357775           3.16156938
    C          -3.12593699          -0.14334969           4.05488946
    C          -4.43457894           0.12106321           3.57735758
    C          -4.63824347           0.36224295           2.15771285
    C          -0.72807883          -0.43775437           3.65849533
    C          -6.45773471           1.33893220          -2.61157615
    C          -6.63351867           1.56680382          -3.97591746
    C          -5.55532002           1.53326159          -4.82412259
    C          -5.90385588           0.62933464           1.62044720
    C          -6.08833555           0.85711171           0.27385253
    C          -2.92189967          -0.38083002           5.45071909
    C          -4.02574926          -0.34978473           6.33675549
    C          -5.28587875          -0.09274736           5.85807382
    C          -5.48364310           0.13904464           4.49737431
    C          -0.53024503          -0.67681813           5.06208829
    C          -1.63238027          -0.64216107           5.92583704
    C           1.86550370          -0.96776752           4.68487691
    C           0.75915179          -0.93788823           5.54411449
    H           6.75457071          -0.78936045          -2.27229035
    H           7.06581675          -1.21242663           0.03966281
    H           7.33522702          -1.36855931           1.97916699
    H           7.63272855          -1.75419826           4.35254196
    H           5.68348705          -1.71177874           5.88281279
    H           3.29293999          -1.41108044           6.23142116
    H           3.86128307           0.52820106          -7.39318856
    H           6.13942567           0.07310278          -6.52736422
    H           6.49267912          -0.33141235          -4.16481800
    H           1.47965401           0.81802455          -6.98638641
    H          -0.90667282           1.11181022          -6.60635524
    H          -3.29323065           1.40766661          -6.23198732
    H          -7.33669160           1.37501053          -1.98279607
    H          -7.63108443           1.77008676          -4.35469708
    H          -5.68144679           1.70906086          -5.88603988
    H          -6.78353884           0.66448571           2.25424760
    H          -7.10063424           1.05667351          -0.06113451
    H          -3.86179631          -0.53119606           7.39256663
    H          -6.13959016          -0.06693935           6.52922881
    H          -6.49402472           0.33707258           4.16707006
    H          -1.48193289          -0.82167247           6.98533981
    H           0.90420676          -1.11744465           6.60581912
    C           7.68903178           1.75327281           0.88334525
    C           6.80138308           1.65293868          -0.16137763
    C           5.45364754           1.93749002           0.02400341
    C           5.04798439           2.44426847           1.24737832
    C           5.94762971           2.63597995           2.27872513
    C           7.27663770           2.21140761           2.14988969
    C           8.33516588           2.98439344           4.30921507
    C           7.90361227           4.29587648           6.47044402
    C           9.20580845           3.99527388           6.50494844
    S           7.03392051           3.91633421           5.00135498
    S           9.87326330           3.18101181           5.11953853
    C           8.27095081           2.22703778           3.20038417
    H           8.72940865           1.49259140           0.71850642
    H           7.12922865           1.26121085          -1.11621468
    H           4.72157417           1.70802919          -0.74168682
    H           3.99712610           2.63176428           1.41509913
    H           5.61731443           3.08712185           3.20312592
    H           7.32342911           4.70029738           7.29047384
    H           9.88578849           4.18089897           7.32447009
    H           9.13332970           1.62588160           2.95615703
