108
  -182.34984857
    C           3.36220284          -0.31501176          -1.20664199
    C           3.54352087          -0.53832441           0.11622968
    C           2.47679207          -0.50525763           0.94689856
    C           1.24422219          -0.25413660           0.47892618
    C           1.06298635          -0.03094626          -0.84323399
    C           2.11783542          -0.06306608          -1.67250829
    C          -0.17873924           0.21913892          -1.30331184
    C          -0.35925327           0.44111009          -2.62028583
    C           0.69949289           0.40846583          -3.44818629
    C           1.93483522           0.16002028          -2.99425844
    C           4.41130487          -0.34108168          -2.06046987
    C           5.64265523          -0.59510787          -1.56234347
    C           5.82292376          -0.81698075          -0.24732617
    C           4.77721580          -0.79190064           0.61002554
    C           2.65617731          -0.72850094           2.26911619
    C           1.59490832          -0.69451139           3.08549607
    C           0.35889343          -0.44350171           2.61990294
    C           0.17843511          -0.22087480           1.30306257
    C           4.96925420          -1.01978972           1.95043678
    C           3.88908440          -0.98211915           2.75824891
    C          -1.06300356           0.03032169           0.84313370
    C          -1.24421384           0.25352929          -0.47904164
    C           2.98432809           0.13244813          -3.84358250
    C           4.23542884          -0.11578970          -3.40353873
    C           6.19012444          -1.27761941           2.48060306
    C           6.34565592          -1.50057241           3.82088372
    C           5.27314118          -1.46510509           4.63566602
    C           4.04696704          -1.20453293           4.09385945
    C           2.98972514          -1.17400585           4.92846554
    C           2.77714502           0.35982144          -5.17164282
    C           3.80612305           0.34254932          -6.06946156
    C           5.05190168           0.09392051          -5.62033195
    C           5.26243029          -0.13442198          -4.28851585
    C           0.50707426           0.63460064          -4.78279099
    C           1.54088807           0.61087258          -5.64447809
    C          -1.59525596           0.69194557          -3.08581905
    C          -1.76910408           0.91569795          -4.42339738
    C          -0.72274924           0.88744178          -5.27102081
    C          -2.47689035           0.50475277          -0.94700604
    C          -2.65629929           0.72728611          -2.26925348
    C          -3.88916932           0.98169620          -2.75819529
    C          -4.04715514           1.20265330          -4.09409965
    C          -2.99050951           1.17034614          -4.92899433
    C          -3.54340672           0.53898180          -0.11612917
    C          -4.77678936           0.79460494          -0.60961398
    C          -4.96879691           1.02159077          -1.95009742
    C          -2.11790151           0.06263906           1.67247127
    C          -3.36210945           0.31575130           1.20675484
    C          -1.93495913          -0.16107822           2.99401272
    C          -2.98444278          -0.13245870           3.84354643
    C          -4.23502521           0.11814995           3.40381339
    C          -4.41081366           0.34390027           2.06089535
    C          -0.69988456          -0.41096155           3.44779338
    C          -6.18966934           1.28050764          -2.48024470
    C          -6.34554487           1.50169855          -3.82067511
    C          -5.27335729           1.46370494          -4.63586228
    C          -5.64194817           0.59995944           1.56295159
    C          -5.82210446           0.82200448           0.24814982
    C          -2.77731336          -0.36103117           5.17141219
    C          -3.80615014          -0.34265075           6.06935640
    C          -5.05155017          -0.09125888           5.62064215
    C          -5.26190780           0.13840977           4.28913360
    C          -0.50746681          -0.63820328           4.78226850
    C          -1.54147357          -0.61406761           5.64392343
    C           1.76876960          -0.91944377           4.42287241
    C           0.72184413          -0.89187588           5.27034696
    H           6.53372744          -0.63837515          -2.14811592
    H           6.83336373          -1.00729893           0.03850338
    H           7.09910727          -1.32813776           1.92687675
    H           7.31836496          -1.70337474           4.22417616
    H           5.39563170          -1.63951105           5.68309416
    H           3.11781789          -1.34900149           5.97562002
    H           3.64243597           0.52094246          -7.11049081
    H           5.87524036           0.07557196          -6.30703101
    H           6.28160102          -0.32026964          -4.03881617
    H           1.38248308           0.78868924          -6.68693868
    H          -0.86589071           1.06333906          -6.31566259
    H          -3.11854724           1.34419010          -5.97626785
    H          -7.09872426           1.33044618          -1.92647142
    H          -7.31810294           1.70501709          -4.22386170
    H          -5.39601280           1.63657360          -5.68341914
    H          -6.53322185           0.64155137           2.14859883
    H          -6.83239519           1.01379580          -0.03749199
    H          -3.64244849          -0.52123708           7.11036924
    H          -5.87498023          -0.07346187           6.30728261
    H          -6.28110280           0.32371586           4.03932545
    H          -1.38283544          -0.79077760           6.68657769
    H           0.86544996          -1.06633459           6.31521587
    C           9.80047659           4.18396775           1.63817358
    C           9.97321404           3.26697130           0.64751625
    C           8.93463379           2.46089537           0.26236063
    C           7.73125960           2.60232204           0.89671430
    C           7.56918484           3.52600159           1.88707469
    C           8.58879148           4.32171594           2.25744419
    C           7.62279482           5.67509118           4.01257579
    C           5.80755559           6.13345614           5.22351780
    C           6.52220011           6.78096104           5.59090765
    S           6.10442107           5.08847189           4.05310913
    S           8.01823285           6.87175354           5.06472949
    C           8.57237934           5.29045145           3.27128055
    H          10.62276189           4.80948069           1.91556875
    H          10.92656531           3.16769012           0.17038096
    H           9.06479073           1.73275416          -0.50836151
    H           6.90951227           1.97566175           0.61710576
    H           6.62110512           3.60805057           2.37298376
    H           4.69877956           6.00333158           5.56339776
    H           6.37681773           7.59359328           6.44772558
    H           9.07578347           4.70636330           3.99890539
