108
  -183.60688271
    C           3.36566942          -0.31532838          -1.20779387
    C           3.54715658          -0.53881476           0.11622265
    C           2.47728426          -0.50526095           0.94686058
    C           1.24435476          -0.25414723           0.47898506
    C           1.06310182          -0.03094564          -0.84339726
    C           2.11830428          -0.06310802          -1.67264908
    C          -0.17878914           0.21922943          -1.30370766
    C          -0.35934924           0.44121757          -2.62099065
    C           0.69878999           0.40941086          -3.45385822
    C           1.93536980           0.16007559          -2.99520085
    C           4.42326681          -0.34315323          -2.05847631
    C           5.66074297          -0.59734836          -1.56525812
    C           5.84096838          -0.81929212          -0.25014378
    C           4.78818499          -0.79268280           0.60437585
    C           2.65698777          -0.72861908           2.26984964
    C           1.59582148          -0.69536617           3.09122739
    C           0.35897693          -0.44354265           2.62059958
    C           0.17849991          -0.22086738           1.30342311
    C           4.98088842          -1.02188912           1.95338209
    C           3.89286249          -0.98330521           2.76322719
    C          -1.06317901           0.03034946           0.84324368
    C          -1.24438530           0.25357410          -0.47913798
    C           2.98651133           0.13298131          -3.84940874
    C           4.24574800          -0.11635080          -3.40994450
    C           6.20744800          -1.28014635           2.48072722
    C           6.35756732          -1.50317208           3.82717298
    C           5.28636075          -1.46870506           4.64797005
    C           4.05177060          -1.20701211           4.10695736
    C           2.99306238          -1.17690450           4.94636889
    C           2.77818013           0.36171225          -5.18547101
    C           3.81546081           0.34351642          -6.08516092
    C           5.06162435           0.09393467          -5.62998222
    C           5.27892444          -0.13602747          -4.29391697
    C           0.50534518           0.63668544          -4.79520047
    C           1.53919298           0.61377637          -5.66239123
    C          -1.59611307           0.69290013          -3.09147367
    C          -1.77082811           0.91777873          -4.43579250
    C          -0.72516853           0.89044202          -5.28888314
    C          -2.47737698           0.50480912          -0.94697146
    C          -2.65707455           0.72751090          -2.27000165
    C          -3.89278950           0.98297030          -2.76310064
    C          -4.05187611           1.20524686          -4.10700715
    C          -2.99365764           1.17342193          -4.94667742
    C          -3.54701317           0.53951650          -0.11614847
    C          -4.78773758           0.79540557          -0.60396135
    C          -4.98042292           1.02374956          -1.95303691
    C          -2.11836348           0.06270558           1.67256122
    C          -3.36557568           0.31611998           1.20788362
    C          -1.93555039          -0.16111315           2.99496777
    C          -2.98664457          -0.13299792           3.84940954
    C          -4.24542190           0.11874079           3.41024486
    C          -4.42280175           0.34597233           2.05887458
    C          -0.69921424          -0.41188379           3.45354065
    C          -6.20689796           1.28299811          -2.48030448
    C          -6.35744283           1.50439486          -3.82692509
    C          -5.28651312           1.46746371          -4.64801391
    C          -5.66004643           0.60212544           1.56591895
    C          -5.84022835           0.82429713           0.25089380
    C          -2.77842647          -0.36292005           5.18525233
    C          -3.81550291          -0.34354025           6.08506600
    C          -5.06128042          -0.09128491           5.63026531
    C          -5.27846851           0.13999544           4.29447746
    C          -0.50583014          -0.64025886           4.79482184
    C          -1.53972704          -0.61688492           5.66188537
    C           1.77052802          -0.92142429           4.43552951
    C           0.72441559          -0.89467870           5.28836976
    H           6.53592831          -0.63797405          -2.15317038
    H           6.83682993          -1.00843610           0.04265626
    H           7.10159862          -1.32771689           1.92135228
    H           7.32155768          -1.70390836           4.22470193
    H           5.39470244          -1.63987084           5.68727385
    H           3.11837750          -1.34959638           5.97990675
    H           3.64045188           0.52176788          -7.11415236
    H           5.87818589           0.07535299          -6.30851222
    H           6.28546321          -0.32151871          -4.03430811
    H           1.38185057           0.78939662          -6.69114734
    H          -0.86648831           1.06405995          -6.32000797
    H          -3.11907511           1.34488676          -5.98050168
    H          -7.10121477           1.33002544          -1.92094534
    H          -7.32132499           1.70555645          -4.22437223
    H          -5.39510123           1.63704244          -5.68754735
    H          -6.53543223           0.64116829           2.15365233
    H          -6.83587724           1.01491165          -0.04164119
    H          -3.64046754          -0.52211716           7.11403108
    H          -5.87792166          -0.07323112           6.30876820
    H          -6.28497842           0.32498966           4.03480937
    H          -1.38219316          -0.79155211           6.69078188
    H           0.86608704          -1.06708897           6.31957575
    C           5.82977379           1.68962640           7.55810344
    C           5.91928684           1.09131156           8.78120359
    C           4.80248624           0.96974409           9.58062856
    C           3.60394536           1.46357050           9.12169603
    C           3.51259335           2.06086912           7.89292564
    C           4.61690741           2.15921068           7.11473569
    C           3.76600164           3.28697205           5.14432680
    C           1.86761255           4.18942072           4.19552071
    C           2.84246048           4.37958810           3.34237476
    S           2.16724482           3.44572941           5.61019165
    S           4.34450981           3.87418480           3.66584168
    C           4.72859714           2.77713006           5.86207128
    H           6.69557923           1.76941825           6.94523383
    H           6.85723474           0.72324962           9.12127503
    H           4.86942236           0.51127738          10.53840527
    H           2.73353128           1.38808400           9.72685515
    H           2.58593496           2.44702105           7.55869065
    H           0.83567753           4.52233811           4.02550640
    H           2.68336905           4.87057779           2.34835092
    H           5.14930719           3.69405224           6.16865189
