108
  -184.09974157
    C           4.24121528          -0.78448518          -1.06235872
    C           4.37434877          -1.04922402           0.33104058
    C           3.24139674          -0.91583219           1.18488870
    C           1.99214093          -0.52345554           0.65929812
    C           1.85793614          -0.26112125          -0.73799555
    C           2.97650061          -0.39277288          -1.58829154
    C           0.60362799           0.15053901          -1.25820887
    C           0.47355003           0.42318228          -2.64601168
    C           1.59751147           0.29443948          -3.49721601
    C           2.84474876          -0.10846689          -2.97976808
    C           5.36786531          -0.89156170          -1.91618326
    C           6.59229967          -1.26402194          -1.35376208
    C           6.72044364          -1.52273052          -0.00656141
    C           5.63220425          -1.42618281           0.86590004
    C           3.37739921          -1.15529456           2.58472120
    C           2.26493887          -0.98931312           3.43406701
    C           1.01330647          -0.58505975           2.90954966
    C           0.87208004          -0.35630097           1.51486697
    C           5.76721192          -1.69231397           2.28696264
    C           4.63320890          -1.54411611           3.12402834
    C          -0.38162375           0.05962611           0.99511944
    C          -0.51921722           0.30662398          -0.40442852
    C           3.97175301          -0.21093775          -3.83869144
    C           5.23713641          -0.59632138          -3.33144937
    C           6.97580115          -2.08768458           2.86433347
    C           7.08935417          -2.33173655           4.23304056
    C           6.00354508          -2.18297841           5.06012154
    C           4.75493786          -1.78524506           4.52770635
    C           3.64133940          -1.61889098           5.35788312
    C           3.83164307           0.09593093          -5.22775779
    C           4.96052801           0.01565960          -6.07661717
    C           6.18086437          -0.35211582          -5.56679796
    C           6.31955782          -0.65470920          -4.21187260
    C           1.46328304           0.58477991          -4.89666853
    C           2.58387544           0.47874068          -5.72980931
    C          -0.77832050           0.82554300          -3.17065737
    C          -0.90649436           1.09147797          -4.57560767
    C           0.21624736           0.97088829          -5.40479721
    C          -1.76443302           0.71442009          -0.92765861
    C          -1.89747589           0.96490367          -2.32548148
    C          -3.15366067           1.35243701          -2.86487666
    C          -3.27625844           1.59195982          -4.26870999
    C          -2.15320253           1.46455493          -5.09299385
    C          -2.88779734           0.88687859          -0.06801339
    C          -4.14136925           1.28078267          -0.59993313
    C          -4.28778373           1.49923108          -2.02787170
    C          -1.48391508           0.25261258           1.85434852
    C          -2.74241310           0.67043281           1.33221857
    C          -1.33557841           0.03411495           3.25592799
    C          -2.43327732           0.25037279           4.13209275
    C          -3.68852594           0.67502788           3.62991053
    C          -3.84482025           0.87199430           2.20009158
    C          -0.09259817          -0.38572223           3.77104679
    C          -5.50640357           1.85364898          -2.61060847
    C          -5.62543183           2.07722366          -3.98229794
    C          -4.53310123           1.95658954          -4.80559134
    C          -5.06547380           1.26234380           1.64067288
    C          -5.21023434           1.45620135           0.28443001
    C          -2.26788463           0.04378657           5.53671271
    C          -3.35696957           0.27960122           6.40786488
    C          -4.56293175           0.70218733           5.90507113
    C          -4.72979345           0.89544902           4.53396561
    C           0.05892374          -0.60496679           5.18175300
    C          -1.03182651          -0.38515801           6.03197987
    C           2.40181150          -1.21761527           4.84484759
    C           1.29706387          -1.02503871           5.68465559
    H           7.47547755          -1.35311052          -1.97349440
    H           7.69858351          -1.80086078           0.36506949
    H           7.86036908          -2.21638071           2.25349821
    H           8.04649188          -2.63897227           4.63833189
    H           6.08581100          -2.36687366           6.12513529
    H           3.74086908          -1.79810110           6.42304951
    H           4.84454524           0.25351389          -7.12765452
    H           7.04868666          -0.40933558          -6.21347396
    H           7.30194009          -0.93798951          -3.85603661
    H           2.48291643           0.70347981          -6.78620354
    H           0.11762486           1.18135765          -6.46449555
    H          -2.24988363           1.65645776          -6.15624977
    H          -6.39529267           1.96172735          -2.00191342
    H          -6.59079115           2.35098842          -4.39185059
    H          -4.61729555           2.13456392          -5.87143431
    H          -5.93186521           1.42010150           2.27054604
    H          -6.18278455           1.75800527          -0.08350302
    H          -3.22148421           0.12501769           7.47203929
    H          -5.39729836           0.88908234           6.57097823
    H          -5.69888818           1.22843603           4.18444691
    H          -0.91318660          -0.54673584           7.09800750
    H           1.40495278          -1.19734753           6.75029478
    C           4.11066622           2.97770319          -2.69955682
    C           5.18294622           2.88886911          -3.56783150
    C           6.43963071           2.53026966          -3.09425563
    C           6.60505167           2.25749354          -1.74248564
    C           5.53536481           2.34952794          -0.86806777
    C           4.26255185           2.71927712          -1.32555214
    C           2.98187037           2.73956159           0.86263527
    C           3.25624045           2.39963754           3.41402332
    C           1.96959460           2.70162052           3.24782037
    S           4.25129949           2.34058969           1.98915533
    S           1.42915222           3.00109735           1.62727395
    C           3.09428366           2.85644580          -0.48121021
    H           3.13344793           3.25528488          -3.08116317
    H           5.03918819           3.09503827          -4.62271785
    H           7.28142763           2.46317178          -3.77327049
    H           7.57927138           1.96751391          -1.36426835
    H           5.69671155           2.12475187           0.17859608
    H           3.73385186           2.18828044           4.35846207
    H           1.23591233           2.77361217           4.03607803
    H           2.18011239           3.11356642          -1.01013024
