108
  -184.09836295
    C           3.50335643          -0.50763785          -1.30050842
    C           3.69270642          -0.75428995           0.09004269
    C           2.58454572          -0.65965937           0.98070764
    C           1.29478912          -0.36988205           0.48687963
    C           1.10048086          -0.14891182          -0.91129814
    C           2.20235137          -0.19974268          -1.79156258
    C          -0.20180644           0.12667859          -1.40516497
    C          -0.39275441           0.35546793          -2.79489799
    C           0.71653807           0.32220898          -3.67397530
    C           2.00976768           0.04831758          -3.18349005
    C           4.60575873          -0.57169740          -2.18985571
    C           5.84827344          -0.95100022          -1.67576050
    C           6.02751227          -1.20843482          -0.33304015
    C           4.97768496          -1.09009659           0.58302422
    C           2.77832685          -0.86282347           2.37972941
    C           1.68256396          -0.76443509           3.26082430
    C           0.38412214          -0.49397446           2.76435177
    C           0.18750777          -0.29494437           1.37118474
    C           5.17636788          -1.29940674           2.00615232
    C           4.07017228          -1.16990429           2.88284984
    C          -1.11561963          -0.02519454           0.87642358
    C          -1.31136924           0.18751878          -0.52306472
    C           3.11696953           0.02563327          -4.07257668
    C           4.41991094          -0.26413207          -3.59710289
    C           6.42323498          -1.61506635           2.54719881
    C           6.59810150          -1.81379114           3.91671955
    C           5.53870272          -1.68475091           4.78076813
    C           4.25466142          -1.35924125           4.28751496
    C           3.16146235          -1.23570366           5.15316591
    C           2.91538296           0.30259238          -5.46012942
    C           4.02563677           0.30289823          -6.33653790
    C           5.28343103           0.04041312          -5.85535135
    C           5.48135008          -0.24066636          -4.50384104
    C           0.52009094           0.56965622          -5.07469954
    C           1.62456618           0.56109738          -5.93515252
    C          -1.68958852           0.63362504          -3.29069501
    C          -1.87679398           0.86771676          -4.69506369
    C          -0.77145362           0.82538173          -5.55444278
    C          -2.60320128           0.46764763          -1.01834182
    C          -2.79246957           0.69289657          -2.41492167
    C          -4.08610310           0.98921226          -2.91991735
    C          -4.26220549           1.22634739          -4.31889330
    C          -3.15971283           1.15413339          -5.17795501
    C          -3.71683107           0.53145926          -0.13192594
    C          -5.00991909           0.82480725          -0.63148802
    C          -5.20339837           1.06094159          -2.05121481
    C          -2.21671444           0.02773396           1.75762919
    C          -3.52405387           0.30126605           1.26118399
    C          -2.01836496          -0.18947257           3.15393758
    C          -3.12241018          -0.14754322           4.04667753
    C          -4.42995367           0.11479797           3.56770045
    C          -4.62765360           0.35385021           2.14920666
    C          -0.72120016          -0.43855257           3.64716057
    C          -6.45263982           1.36242169          -2.59512094
    C          -6.61993926           1.60574469          -3.95840874
    C          -5.54840116           1.54190346          -4.81377426
    C          -5.88718150           0.65313879           1.62203467
    C          -6.07232179           0.88399124           0.27591588
    C          -2.90995064          -0.35742576           5.44467236
    C          -4.00969547          -0.29460637           6.33180296
    C          -5.27162855          -0.05048284           5.84924168
    C          -5.48198640           0.14865242           4.48503780
    C          -0.51760926          -0.64686045           5.05333424
    C          -1.61744579          -0.60743107           5.91928998
    C           1.87764715          -0.95612827           4.67040617
    C           0.77630187          -0.88549575           5.53411258
    H           6.70305036          -1.06129673          -2.33109049
    H           7.01492056          -1.49895293           0.00079854
    H           7.28798362          -1.71311379           1.90414187
    H           7.58081865          -2.07189328           4.29312114
    H           5.66611153          -1.84044773           5.84546739
    H           3.30558248          -1.38166131           6.21831267
    H           3.86164249           0.51439530          -7.38698371
    H           6.13606885           0.04707683          -6.52576544
    H           6.49047921          -0.44171446          -4.16719938
    H           1.47425339           0.75717028          -6.99132953
    H          -0.91753323           1.00178570          -6.61536549
    H          -3.29694718           1.33302630          -6.23887145
    H          -7.32566017           1.42107041          -1.95796101
    H          -7.60718438           1.84394253          -4.33693857
    H          -5.66883336           1.73393450          -5.87371019
    H          -6.75249088           0.71281326           2.26927970
    H          -7.07275732           1.11381973          -0.06564626
    H          -3.83456727          -0.43211245           7.39238623
    H          -6.11489169           0.00014467           6.52844448
    H          -6.49280526           0.34154388           4.14943015
    H          -1.46089687          -0.77287864           6.98005291
    H           0.92703726          -1.03405640           6.59858301
    C          -0.12223066           3.77906343           0.84834937
    C          -0.89634947           4.01384925          -0.27394792
    C          -0.38437299           3.77629860          -1.54245811
    C           0.91768442           3.31202664          -1.67492560
    C           1.70671815           3.09324089          -0.55595365
    C           1.20345436           3.31992792           0.73388931
    C           3.25613175           2.80691401           2.12710271
    C           5.74504211           2.12233969           1.92070228
    C           5.52209466           2.19938074           3.23133380
    S           4.41243508           2.48165723           0.86553428
    S           3.92941044           2.66463808           3.73552355
    C           1.95368825           3.13555849           1.95941928
    H          -0.53637583           3.95391470           1.83565474
    H          -1.90525659           4.39910517          -0.16030592
    H          -0.99755548           3.94775676          -2.42200161
    H           1.32831219           3.12250814          -2.66169248
    H           2.71579475           2.72913583          -0.70141951
    H           6.68085191           1.85338503           1.45620278
    H           6.24562359           1.98899581           4.00353834
    H           1.38816110           3.31666763           2.86950231
