108
  -184.09052251
    C           3.91405803          -0.47707266          -1.21135236
    C           4.06908458          -0.88986006           0.14355396
    C           2.95465651          -0.83123277           1.02844916
    C           1.69052818          -0.41764105           0.55845381
    C           1.51991070          -0.07521443          -0.81686287
    C           2.63020334          -0.08423988          -1.68668473
    C           0.23315721           0.28115917          -1.29593387
    C           0.05780072           0.60375823          -2.66779644
    C           1.17966999           0.62983133          -3.53177855
    C           2.46321893           0.29760677          -3.05118838
    C           5.02986080          -0.46756740          -2.08527641
    C           6.25369431          -0.92548837          -1.59020271
    C           6.39722912          -1.35155038          -0.28803774
    C           5.32995034          -1.33675064           0.61357097
    C           3.12340046          -1.16745705           2.40476770
    C           2.04025054          -1.02138574           3.29608237
    C           0.77587768          -0.58607881           2.82986658
    C           0.58920001          -0.31768484           1.44750383
    C           5.49036225          -1.73839091           2.00022121
    C           4.38551283          -1.61855710           2.87911173
    C          -0.68783934           0.07988861           0.97606518
    C          -0.87675590           0.33847902          -0.41480648
    C           3.58757031           0.34946202          -3.91912772
    C           4.87930204          -0.00226122          -3.45305070
    C           6.70269616          -2.20946740           2.51342884
    C           6.85102439          -2.54146451           3.86113417
    C           5.79724687          -2.41047485           4.72952519
    C           4.54374458          -1.94536910           4.26184480
    C           3.46363786          -1.77709230           5.13627407
    C           3.41352285           0.77139134          -5.27411384
    C           4.54122101           0.84821383          -6.12707109
    C           5.79014525           0.53447186          -5.65014414
    C           5.96054073           0.11696443          -4.32940984
    C           1.00564814           1.01047976          -4.90559774
    C           2.13147110           1.09174553          -5.73797975
    C          -1.23645857           0.90398797          -3.15930448
    C          -1.41293020           1.20895165          -4.55126472
    C          -0.28576636           1.28254473          -5.38389307
    C          -2.15827774           0.67102123          -0.89996403
    C          -2.34734933           0.91751130          -2.29176694
    C          -3.64760224           1.18350470          -2.79857014
    C          -3.82800664           1.40095680          -4.19939900
    C          -2.70879533           1.43031043          -5.04123846
    C          -3.25735325           0.79221466          -0.00359485
    C          -4.54683534           1.10649530          -0.49920399
    C          -4.76624246           1.23872973          -1.92887802
    C          -1.76280776           0.24538500           1.87463181
    C          -3.04854030           0.62521213           1.39549598
    C          -1.55613405           0.04332170           3.27131226
    C          -2.61903744           0.26421933           4.18839449
    C          -3.90340176           0.65549930           3.73020200
    C          -4.11556751           0.83235282           2.30448515
    C          -0.29515129          -0.38541723           3.73611621
    C          -6.03277841           1.43180912          -2.48151020
    C          -6.21395750           1.60441803          -3.85434570
    C          -5.13341011           1.60688350          -4.70602746
    C          -5.35738936           1.20561456           1.78351084
    C          -5.57011047           1.32110877           0.42684684
    C          -2.39374270           0.07350409           5.58650603
    C          -3.45550080           0.28969201           6.49573132
    C          -4.69931005           0.65338561           6.03342628
    C          -4.92195027           0.83037959           4.66818581
    C          -0.08651945          -0.60740041           5.13950072
    C          -1.13679283          -0.35439789           6.03350354
    C           2.22157220          -1.30207916           4.69251847
    C           1.15910051          -1.07811866           5.58161728
    H           7.12557004          -0.96367335          -2.22983198
    H           7.37565399          -1.69195593           0.02445713
    H           7.56270719          -2.32764145           1.86772780
    H           7.81259054          -2.90050590           4.21475303
    H           5.90752664          -2.65985502           5.77972194
    H           3.59521420          -2.01048985           6.18700772
    H           4.40142486           1.15664369          -7.15732516
    H           6.65761144           0.60504471          -6.29746844
    H           6.96602362          -0.10709442          -3.99586360
    H           2.00720066           1.40705075          -6.76858637
    H          -0.41635165           1.55346426          -6.42670946
    H          -2.84795653           1.63577226          -6.09717218
    H          -6.91249943           1.44177213          -1.84886680
    H          -7.21594321           1.74064191          -4.24336007
    H          -5.26687059           1.76165413          -5.76997053
    H          -6.19004756           1.40990656           2.44302000
    H          -6.55950912           1.60374648           0.09319219
    H          -3.27615074           0.15237127           7.55466914
    H          -5.51718100           0.80180666           6.72786225
    H          -5.92125232           1.10689221           4.35352614
    H          -0.97770863          -0.51089247           7.09521770
    H           1.30457661          -1.26753883           6.64038024
    C           6.39596326           3.76486331           0.90889711
    C           7.63466732           3.41445761           1.40963317
    C           7.77463740           2.29278617           2.21838990
    C           6.64753096           1.54439296           2.53647792
    C           5.39814988           1.91304647           2.06447065
    C           5.24482509           3.02916128           1.23018281
    C           2.74096775           3.25946064           1.17379193
    C           0.66639202           2.77224846           2.64875983
    C           0.20430629           3.47896353           1.61925085
    S           2.36508692           2.39478354           2.64494669
    S           1.33583573           3.95068600           0.39503154
    C           3.97519629           3.46499120           0.66939038
    H           6.29533975           4.64793748           0.28570900
    H           8.49688960           4.03353736           1.18716774
    H           8.75390502           1.99322523           2.57476097
    H           6.75511531           0.66596715           3.16483787
    H           4.53877575           1.30519016           2.32179582
    H           0.07545420           2.40527321           3.47663207
    H          -0.81736145           3.79537145           1.47721614
    H           4.04200317           4.11191911          -0.20452080
