108
  -182.60588212
    C           3.36468596          -0.31526261          -1.20736447
    C           3.54607361          -0.53867587           0.11614881
    C           2.47686506          -0.50524710           0.94684007
    C           1.24443334          -0.25420883           0.47912467
    C           1.06315357          -0.03094581          -0.84349877
    C           2.11790680          -0.06308349          -1.67246519
    C          -0.17878029           0.21919927          -1.30357131
    C          -0.35931222           0.44117083          -2.62069401
    C           0.69912596           0.40904916          -3.45175815
    C           1.93501057           0.16007984          -2.99487033
    C           4.41996254          -0.34264702          -2.05861098
    C           5.65665558          -0.59681979          -1.56485676
    C           5.83693347          -0.81885407          -0.24925521
    C           4.78505451          -0.79241623           0.60552586
    C           2.65651064          -0.72860538           2.26966122
    C           1.59552163          -0.69509852           3.08902614
    C           0.35895311          -0.44355866           2.62032622
    C           0.17847434          -0.22089176           1.30332256
    C           4.97771280          -1.02140545           1.95294322
    C           3.89158964          -0.98294778           2.76150641
    C          -1.06316351           0.03030792           0.84339785
    C          -1.24443102           0.25359071          -0.47924270
    C           2.98584966           0.13279636          -3.84749187
    C           4.24290640          -0.11613937          -3.40857698
    C           6.20342268          -1.27948584           2.47989382
    C           6.35506865          -1.50271195           3.82595972
    C           5.28304168          -1.46801640           4.64566047
    C           4.05008760          -1.20634424           4.10344462
    C           2.99207439          -1.17632923           4.94239365
    C           2.77757614           0.36125144          -5.18175462
    C           3.81292754           0.34342291          -6.08203258
    C           5.05955473           0.09395186          -5.62805940
    C           5.27540536          -0.13581175          -4.29191011
    C           0.50576032           0.63617992          -4.79218156
    C           1.53933658           0.61316900          -5.65843302
    C          -1.59586960           0.69255094          -3.08934527
    C          -1.77033033           0.91726489          -4.43279431
    C          -0.72468176           0.88978365          -5.28491800
    C          -2.47696259           0.50474624          -0.94694223
    C          -2.65662316           0.72741290          -2.26978699
    C          -3.89167930           0.98255901          -2.76144705
    C          -4.05026980           1.20451818          -4.10365456
    C          -2.99281053           1.17272817          -4.94282721
    C          -3.54597265           0.53934919          -0.11605711
    C          -4.78460827           0.79511278          -0.60513208
    C          -4.97728028           1.02322041          -1.95259876
    C          -2.11798378           0.06266014           1.67242261
    C          -3.36458333           0.31602513           1.20748418
    C          -1.93513517          -0.16114134           2.99463171
    C          -2.98595793          -0.13280924           3.84742644
    C          -4.24248342           0.11851681           3.40883248
    C          -4.41950368           0.34546492           2.05902347
    C          -0.69950860          -0.41155694           3.45134644
    C          -6.20301744           1.28231914          -2.47949685
    C          -6.35496364           1.50384475          -3.82570871
    C          -5.28325696           1.46665073          -4.64580703
    C          -5.65599615           0.60159820           1.56550316
    C          -5.83623703           0.82382262           0.25004560
    C          -2.77772731          -0.36246840           5.18152591
    C          -3.81296389          -0.34348163           6.08196670
    C          -5.05922517          -0.09130572           5.62838561
    C          -5.27488791           0.13976538           4.29252433
    C          -0.50612899          -0.63977208           4.79163988
    C          -1.53996022          -0.61632088           5.65792368
    C           1.76998922          -0.92094973           4.43228459
    C           0.72379174          -0.89412878           5.28431747
    H           6.53486074          -0.63806382          -2.15151105
    H           6.83536482          -1.00802877           0.04138787
    H           7.10047585          -1.32780550           1.92307405
    H           7.32022728          -1.70367614           4.22434388
    H           5.39483394          -1.63974097           5.68555869
    H           3.11812543          -1.34937431           5.97809322
    H           3.64100911           0.52145906          -7.11261900
    H           5.87699562           0.07541570          -6.30777139
    H           6.28392901          -0.32110224          -4.03560388
    H           1.38211121           0.78910104          -6.68939616
    H          -0.86624294           1.06376292          -6.31822055
    H          -3.11885346           1.34459711          -5.97874112
    H          -7.10008134           1.33010962          -1.92266786
    H          -7.31997529           1.70531043          -4.22402534
    H          -5.39522043           1.63681977          -5.68590185
    H          -6.53435237           0.64125518           2.15197882
    H          -6.83439040           1.01451250          -0.04037413
    H          -3.64102597          -0.52178126           7.11249480
    H          -5.87672133          -0.07329219           6.30802017
    H          -6.28342203           0.32456810           4.03611293
    H          -1.38246257          -0.79121709           6.68903596
    H           0.86581048          -1.06676572           6.31777743
    C           3.11822770           5.58117660           6.75276842
    C           2.55184906           4.38626727           7.08989965
    C           2.89507419           3.23709322           6.41141079
    C           3.81396501           3.32317081           5.39302758
    C           4.38232372           4.52289929           5.05899467
    C           4.04531459           5.63737247           5.74091491
    C           5.38114975           7.34148832           4.66133323
    C           6.91231986           7.73700825           3.01099895
    C           6.68623329           8.82526848           3.52806903
    S           6.15920918           6.39711379           3.52876859
    S           5.65190816           9.00439068           4.75145630
    C           4.49132301           6.95151029           5.50999432
    H           2.85108028           6.45841635           7.29191057
    H           1.83653662           4.34258786           7.87627913
    H           2.45057523           2.30453498           6.66473387
    H           4.08528165           2.44940726           4.85094505
    H           5.08037563           4.57158104           4.26339942
    H           7.61687334           7.56007366           2.14974887
    H           7.20472676           9.80326642           3.21062103
    H           3.65084135           7.30217798           4.97715922
