108
  -183.59291449
    C           3.49391778          -0.61603569          -1.37457751
    C           3.69468838          -0.85318719           0.03354823
    C           2.58779003          -0.63670363           0.97938472
    C           1.23502445          -0.54266560           0.41143390
    C           1.06948984          -0.26062245          -0.97361801
    C           2.18206223          -0.28317296          -1.87948323
    C          -0.21320449           0.15572827          -1.45384788
    C          -0.38485436           0.47381323          -2.84717654
    C           0.74191315           0.47121724          -3.73172666
    C           2.02886158           0.14086587          -3.25220535
    C           4.61636837          -0.49216733          -2.25229373
    C           5.85751303          -0.70237722          -1.61723358
    C           6.04947402          -0.93616296          -0.26188590
    C           4.96503620          -1.01162484           0.63014662
    C           2.77268490          -0.71410831           2.53923531
    C           1.59529471          -0.89983819           3.41647347
    C           0.35522393          -0.60609323           2.85811946
    C           0.23671306          -0.14890108           1.42161483
    C           5.15389560          -1.14876004           2.10948473
    C           4.07456660          -1.14929545           3.04102154
    C          -1.13475794           0.07353356           0.88732546
    C          -1.31454745           0.26286018          -0.52955175
    C           3.14634081           0.17571381          -4.15453100
    C           4.46034344          -0.12767545          -3.68201416
    C           6.44796773          -1.31020337           2.62737722
    C           6.63755872          -1.52518849           4.00070017
    C           5.60402840          -1.57497630           4.91915566
    C           4.26569076          -1.39514358           4.44930577
    C           3.12815459          -1.40585369           5.29958345
    C           2.92839093           0.42795805          -5.56093274
    C           4.01480482           0.37807452          -6.46295918
    C           5.27231700           0.12983344          -5.97863063
    C           5.49994542          -0.10937159          -4.62108999
    C           0.52961936           0.71379660          -5.14938677
    C           1.62701907           0.66045623          -6.02174897
    C          -1.68629310           0.76856664          -3.32973542
    C          -1.88813879           0.99587809          -4.74858991
    C          -0.77776501           0.94523280          -5.60048101
    C          -2.60466732           0.54611063          -1.03854245
    C          -2.79497768           0.78509916          -2.45220055
    C          -4.11536422           1.04173551          -2.95022647
    C          -4.31135593           1.27725528          -4.35388531
    C          -3.19891476           1.23990623          -5.19989752
    C          -3.72364236           0.58522754          -0.14122992
    C          -5.02716359           0.84484666          -0.65495497
    C          -5.23990754           1.07788393          -2.08250323
    C          -2.22771165           0.07111635           1.76592581
    C          -3.54207539           0.33563175           1.26117184
    C          -2.06059427          -0.20067651           3.18980673
    C          -3.15922662          -0.13344181           4.07650231
    C          -4.46473417           0.14222170           3.58987795
    C          -4.64600697           0.37088680           2.15955194
    C          -0.78573012          -0.53686866           3.70649222
    C          -6.50331359           1.34735444          -2.63667642
    C          -6.69589924           1.57948042          -3.99880611
    C          -5.62192096           1.54687310          -4.85477636
    C          -5.89835439           0.63340769           1.61064625
    C          -6.07931717           0.85454007           0.26290657
    C          -2.96908001          -0.35257659           5.48532934
    C          -4.07944788          -0.33668139           6.36614677
    C          -5.32148892          -0.09130338           5.86627465
    C          -5.50756175           0.15034060           4.50251790
    C          -0.59995319          -0.76697031           5.12140345
    C          -1.69839779          -0.62466697           5.97971427
    C           1.80124191          -1.18722553           4.82402073
    C           0.66846100          -1.10192474           5.65655445
    H           6.76116208          -0.61764719          -2.18972174
    H           7.08043280          -1.06385944           0.06617030
    H           7.33031627          -1.15797458           2.01814002
    H           7.64860972          -1.67038818           4.33552647
    H           5.85959435          -1.79960736           5.97021510
    H           3.35710634          -1.40547383           6.35891188
    H           3.93128041           0.52894997          -7.53387472
    H           6.12132900           0.09169160          -6.64354484
    H           6.52986157          -0.31205550          -4.34732988
    H           1.50119560           0.82250243          -7.08799256
    H          -0.95974528           1.11999742          -6.66020696
    H          -3.40722653           1.42580231          -6.25338892
    H          -7.40519259           1.39374935          -2.03358262
    H          -7.70088557           1.78416586          -4.37788757
    H          -5.80076300           1.73133757          -5.91214820
    H          -6.78370670           0.66715952           2.23005278
    H          -7.09900836           1.04894200          -0.03573063
    H          -3.96725737          -0.52724575           7.42581623
    H          -6.17643228          -0.06418875           6.52189165
    H          -6.52404479           0.33024382           4.19510412
    H          -1.58761998          -0.78842949           7.04843513
    H           0.80027473          -1.09216840           6.73760275
    C           5.27506708           3.27242920           2.33375278
    C           5.26210149           4.60991808           2.65566898
    C           4.00792780           5.18737338           2.86935336
    C           2.80951917           4.47124207           2.91384871
    C           2.88709439           3.09573543           2.88771884
    C           4.06653200           2.53804512           2.32656761
    C           2.75121575           0.63890881           1.78007251
    C           1.55698913          -2.94371337           1.22333215
    C           2.60179798          -3.69352621           1.04597293
    S           1.20393126           1.54982029           1.69194695
    S           4.24336274          -3.79546428           0.84458567
    C           3.93437145           1.39418142           1.57328724
    H           6.16373037           2.73283217           2.08794945
    H           6.19224424           5.16663743           2.61433479
    H           4.01454834           6.23781936           3.10488097
    H           1.86791106           4.98741983           3.04573405
    H           2.10488585           2.45567200           3.26609999
    H           0.51472248          -2.81917277           1.40236181
    H           2.23772495          -4.68686304           0.76953110
    H           4.65540007           1.08804863           0.82329965
