108
  -182.96203561
    C           3.36221036          -0.31502369          -1.20664130
    C           3.54351396          -0.53833144           0.11622231
    C           2.47680935          -0.50527156           0.94691702
    C           1.24420134          -0.25413774           0.47893179
    C           1.06297781          -0.03094736          -0.84323132
    C           2.11783669          -0.06306899          -1.67252130
    C          -0.17872100           0.21913753          -1.30332078
    C          -0.35924628           0.44110795          -2.62027920
    C           0.69949113           0.40846626          -3.44819104
    C           1.93482921           0.16001686          -2.99423957
    C           4.41126251          -0.34108372          -2.06047517
    C           5.64261907          -0.59516715          -1.56228461
    C           5.82279545          -0.81708723          -0.24738318
    C           4.77721573          -0.79193727           0.61000466
    C           2.65616511          -0.72850694           2.26910758
    C           1.59491660          -0.69451610           3.08548921
    C           0.35890323          -0.44350412           2.61990163
    C           0.17846427          -0.22088014           1.30306379
    C           4.96917967          -1.01981165           1.95043022
    C           3.88909833          -0.98213660           2.75824126
    C          -1.06302956           0.03032471           0.84313631
    C          -1.24422902           0.25352991          -0.47903259
    C           2.98434102           0.13244578          -3.84359334
    C           4.23540806          -0.11579502          -3.40352485
    C           6.19006345          -1.27767335           2.48064407
    C           6.34562358          -1.50060465           3.82088682
    C           5.27312424          -1.46512139           4.63563240
    C           4.04693501          -1.20453516           4.09385752
    C           2.98977716          -1.17401933           4.92841414
    C           2.77713709           0.35982288          -5.17164246
    C           3.80611519           0.34254601          -6.06944540
    C           5.05188862           0.09391687          -5.62031539
    C           5.26241502          -0.13442580          -4.28853048
    C           0.50704466           0.63460656          -4.78279659
    C           1.54090007           0.61086691          -5.64446185
    C          -1.59526244           0.69194812          -3.08583168
    C          -1.76914815           0.91570481          -4.42339450
    C          -0.72269981           0.88743171          -5.27100757
    C          -2.47688031           0.50475027          -0.94699812
    C          -2.65630754           0.72728877          -2.26926242
    C          -3.88915325           0.98169699          -2.75821461
    C          -4.04716936           1.20265432          -4.09408748
    C          -2.99045752           1.17033540          -4.92897888
    C          -3.54340036           0.53898019          -0.11612382
    C          -4.77680005           0.79460542          -0.60960329
    C          -4.96883062           1.02159789          -1.95010927
    C          -2.11788770           0.06264006           1.67245190
    C          -3.36210674           0.31575148           1.20675191
    C          -1.93497271          -0.16107884           2.99403090
    C          -2.98440651          -0.13246567           3.84355985
    C          -4.23507339           0.11815304           3.40384326
    C          -4.41082310           0.34390413           2.06088241
    C          -0.69987288          -0.41096594           3.44780499
    C          -6.18964213           1.28050103          -2.48023034
    C          -6.34552470           1.50169537          -3.82067675
    C          -5.27334417           1.46369898          -4.63583888
    C          -5.64192184           0.59995283           1.56296314
    C          -5.82208592           0.82200372           0.24812910
    C          -2.77733344          -0.36102662           5.17140892
    C          -3.80615311          -0.34264457           6.06931600
    C          -5.05151786          -0.09126304           5.62063715
    C          -5.26188351           0.13841198           4.28909300
    C          -0.50753885          -0.63819310           4.78228219
    C          -1.54140755          -0.61407108           5.64387067
    C           1.76870051          -0.91943421           4.42288196
    C           0.72193427          -0.89188458           5.27028739
    H           6.53371977          -0.63838720          -2.14812855
    H           6.83336170          -1.00729110           0.03850391
    H           7.09910565          -1.32815876           1.92688382
    H           7.31836890          -1.70337339           4.22418339
    H           5.39563345          -1.63950471           5.68310680
    H           3.11781963          -1.34899538           5.97563430
    H           3.64243395           0.52094578          -7.11049825
    H           5.87524714           0.07557371          -6.30703687
    H           6.28160058          -0.32026952          -4.03881982
    H           1.38248172           0.78869225          -6.68694340
    H          -0.86589179           1.06334166          -6.31566597
    H          -3.11854799           1.34419235          -5.97627180
    H          -7.09873209           1.33044782          -1.92646771
    H          -7.31811351           1.70502000          -4.22386475
    H          -5.39601369           1.63657585          -5.68342601
    H          -6.53323156           0.64155310           2.14860396
    H          -6.83240431           1.01379855          -0.03749386
    H          -3.64244513          -0.52123963           7.11038565
    H          -5.87499511          -0.07346098           6.30729267
    H          -6.28111206           0.32371811           4.03932513
    H          -1.38283369          -0.79077778           6.68659123
    H           0.86545121          -1.06633165           6.31522993
    C           6.53368960           8.54895427           5.61921362
    C           7.33050040           8.41325003           4.52399341
    C           8.47078889           7.65712885           4.58780297
    C           8.78326990           7.04912253           5.77248482
    C           7.97632475           7.19078015           6.86301053
    C           6.85311277           7.92735724           6.79461179
    C           5.94017836           7.74888216           9.02658625
    C           6.18121144           6.89738921          11.07298285
    C           5.30919886           7.44589794          11.13285227
    S           7.05194998           6.79587292           9.73861611
    S           4.67061589           8.26529083           9.93069690
    C           5.94899444           8.17937518           7.83761913
    H           5.64277431           9.13630779           5.54328051
    H           7.07078902           8.90524758           3.60910100
    H           9.10581502           7.55301225           3.73516905
    H           9.67477172           6.46162527           5.84595483
    H           8.24983262           6.71332871           7.77891366
    H           6.71317907           6.28192875          11.90977920
    H           4.60059912           7.56027295          12.08159011
    H           6.29451361           9.15741017           8.05710396
