108
  -184.08478051
    C           3.59067354          -0.51298925          -1.66928041
    C           3.85235718          -0.70883232          -0.28272948
    C           2.78946546          -0.58810882           0.65873778
    C           1.47762435          -0.30359449           0.22337445
    C           1.21484826          -0.11326683          -1.16733904
    C           2.26919605          -0.20241971          -2.10117310
    C          -0.10787951           0.16138470          -1.60114028
    C          -0.36680290           0.36101925          -2.98351784
    C           0.69739417           0.29955118          -3.91582378
    C           2.00902260           0.01315094          -3.48696762
    C           4.63994264          -0.63608006          -2.61439296
    C           5.90871990          -0.99335364          -2.15006632
    C           6.16331177          -1.18023218          -0.80916026
    C           5.16293170          -1.02624600           0.15551524
    C           3.05149542          -0.76245670           2.05002042
    C           1.99919414          -0.64450169           2.98048553
    C           0.67971273          -0.37316135           2.54408482
    C           0.41475717          -0.20490083           1.15876448
    C           5.43508806          -1.18706273           1.57265470
    C           4.36943158          -1.04952813           2.49724618
    C          -0.91017896           0.05858153           0.72398518
    C          -1.17466122           0.23692499          -0.66805117
    C           3.06748609          -0.06284694          -4.43248938
    C           4.38286915          -0.39240718          -4.02200766
    C           6.71318377          -1.46387400           2.06235215
    C           6.95813477          -1.61006480           3.42775117
    C           5.93675844          -1.48425563           4.33708947
    C           4.62272982          -1.20305864           3.89551112
    C           3.56952529          -1.07506131           4.80806336
    C           2.79885036           0.18440915          -5.81473540
    C           3.85790552           0.11593457          -6.75125295
    C           5.12548325          -0.20784288          -6.33646401
    C           5.38694443          -0.46622555          -4.99020300
    C           0.43397007           0.52482565          -5.30899094
    C           1.49387272           0.47632884          -6.22424288
    C          -1.68820354           0.61917829          -3.42160958
    C          -1.94381397           0.82312436          -4.81942080
    C          -0.87767532           0.78100409          -5.72839949
    C          -2.49211849           0.48728383          -1.10716572
    C          -2.75135920           0.67393534          -2.49752705
    C          -4.07632523           0.91628847          -2.94994553
    C          -4.32225482           1.10700044          -4.34497196
    C          -3.25498937           1.06173726          -5.24890382
    C          -3.56439650           0.55558395          -0.17105093
    C          -4.88953672           0.78794750          -0.61831517
    C          -5.15682401           0.96953708          -2.03401120
    C          -1.96524434           0.14541764           1.65737960
    C          -3.29865418           0.39059451           1.21893075
    C          -1.69484000          -0.01618271           3.04869360
    C          -2.74907988           0.08066101           3.99678815
    C          -4.08091530           0.32391203           3.57759243
    C          -4.35711520           0.46795972           2.15924277
    C          -0.37720695          -0.26908883           3.48068882
    C          -6.44163573           1.20075350          -2.52961949
    C          -6.67948040           1.38240475          -3.89196859
    C          -5.64352559           1.34106362          -4.79238139
    C          -5.65281839           0.68409756           1.68041103
    C          -5.91073149           0.83735692           0.33552973
    C          -2.46237310          -0.06695649           5.38935290
    C          -3.51261456           0.03979462           6.33092281
    C          -4.79602451           0.28347299           5.90780918
    C          -5.07935907           0.42265038           4.54915497
    C          -0.10100622          -0.42482785           4.88085059
    C          -1.14910279          -0.31511683           5.80327300
    C           2.26332075          -0.80371658           4.38255465
    C           1.21041753          -0.68508245           5.29972052
    H           6.72723303          -1.12859074          -2.84438802
    H           7.17075412          -1.45239240          -0.51942996
    H           7.55034900          -1.56909783           1.38358237
    H           7.96582724          -1.82485108           3.76431013
    H           6.12133808          -1.59715618           5.39918914
    H           3.76780342          -1.19246281           5.86807149
    H           3.64849031           0.31321018          -7.79626364
    H           5.93781587          -0.26628028          -7.05177780
    H           6.39938303          -0.73076118          -4.71414519
    H           1.29481358           0.65820657          -7.27499842
    H          -1.07430332           0.94444426          -6.78270894
    H          -3.44748517           1.21219594          -6.30582196
    H          -7.28971802           1.24523520          -1.85791627
    H          -7.69319780           1.55834306          -4.23280681
    H          -5.82157860           1.48555120          -5.85173443
    H          -6.48934313           0.73568572           2.36598412
    H          -6.93703651           1.00203854           0.03235135
    H          -3.28685102          -0.07252761           7.38507347
    H          -5.60166390           0.36991429           6.62778802
    H          -6.10622059           0.61425402           4.26419041
    H          -0.93763497          -0.42688482           6.86135185
    H           1.41470709          -0.80185222           6.35879431
    C           9.54160578          -1.30159735          -2.35470678
    C           9.75679410          -2.61548795          -2.72877463
    C           9.59889311          -3.00128842          -4.05489925
    C           9.24053353          -2.05292495          -5.00388714
    C           9.01749726          -0.73640552          -4.63433233
    C           9.14590501          -0.33415090          -3.29593337
    C           8.24804831           2.02428379          -3.44784746
    C           6.90699254           3.59196270          -5.00947452
    C           7.12562847           4.31057696          -3.90884531
    S           7.54580018           1.97566995          -5.04343925
    S           8.01451368           3.55213315          -2.62977324
    C           8.88940479           1.01072268          -2.82087132
    H           9.67066397          -1.01002806          -1.31747627
    H          10.05058173          -3.34599055          -1.98317891
    H           9.76524009          -4.03114555          -4.34773216
    H           9.13661447          -2.33934420          -6.04476427
    H           8.77563202          -0.01106255          -5.40111791
    H           6.37453478           3.93107456          -5.88459199
    H           6.79682691           5.32621948          -3.75016757
    H           9.21904356           1.20887823          -1.80460291
