108
  -183.64127140
    C           3.36925261          -0.31560738          -1.20913043
    C           3.55095099          -0.53933559           0.11646677
    C           2.47844529          -0.50544578           0.94712213
    C           1.24423474          -0.25412694           0.47877800
    C           1.06307919          -0.03100054          -0.84311709
    C           2.11933348          -0.06316420          -1.67318590
    C          -0.17876029           0.21931525          -1.30417472
    C          -0.35950084           0.44140462          -2.62215093
    C           0.69780104           0.41058255          -3.46077896
    C           1.93629358           0.16011801          -2.99639144
    C           4.43426256          -0.34483910          -2.05784170
    C           5.67552989          -0.59920292          -1.56701466
    C           5.85563353          -0.82092108          -0.25297100
    C           4.79858090          -0.79350132           0.60041321
    C           2.65817916          -0.72894019           2.27075922
    C           1.59668902          -0.69660720           3.09803651
    C           0.35916371          -0.44382124           2.62182804
    C           0.17867596          -0.22096436           1.30388824
    C           4.99128976          -1.02354085           1.95519823
    C           3.89691986          -0.98465848           2.76859151
    C          -1.06324864           0.03037937           0.84300895
    C          -1.24439295           0.25352585          -0.47884284
    C           2.98895865           0.13358841          -3.85591435
    C           4.25524546          -0.11698900          -3.41488119
    C           6.22149892          -1.28238875           2.48308334
    C           6.36685019          -1.50503270           3.83147676
    C           5.29740121          -1.47160876           4.65643452
    C           4.05659305          -1.20948739           4.11861919
    C           2.99635547          -1.17963916           4.96023157
    C           2.77977047           0.36337790          -5.19826280
    C           3.82379820           0.34401659          -6.09673096
    C           5.06922757           0.09387005          -5.63698755
    C           5.29177399          -0.13691179          -4.30052391
    C           0.50363793           0.63849408          -4.80570739
    C           1.53851048           0.61600499          -5.67678074
    C          -1.59697632           0.69404739          -3.09842712
    C          -1.77232359           0.91955117          -4.44627881
    C          -0.72696539           0.89280895          -5.30311324
    C          -2.47843181           0.50497126          -0.94707749
    C          -2.65838105           0.72784709          -2.27095870
    C          -3.89670439           0.98437075          -2.76854810
    C          -4.05697141           1.20772593          -4.11871525
    C          -2.99669328           1.17592415          -4.96063344
    C          -3.55078053           0.54010438          -0.11636708
    C          -4.79816034           0.79636160          -0.59985255
    C          -4.99095132           1.02558374          -1.95484876
    C          -2.11934460           0.06277659           1.67298352
    C          -3.36909953           0.31645080           1.20928058
    C          -1.93654513          -0.16119488           2.99633112
    C          -2.98884089          -0.13362770           3.85575973
    C          -4.25500862           0.11943028           3.41522622
    C          -4.43389303           0.34772196           2.05815996
    C          -0.69811675          -0.41316047           3.46035698
    C          -6.22087642           1.28534300          -2.48261986
    C          -6.36663582           1.50641031          -3.83131736
    C          -5.29762674           1.47037085          -4.65649056
    C          -5.67480438           0.60395151           1.56775869
    C          -5.85484757           0.82604079           0.25369539
    C          -2.78012253          -0.36456892           5.19800664
    C          -3.82386224          -0.34400826           6.09666650
    C          -5.06892488          -0.09125640           5.63735949
    C          -5.29115803           0.14081723           4.30099667
    C          -0.50450907          -0.64205988           4.80512167
    C          -1.53890547          -0.61916274           5.67619687
    C           1.77142785          -0.92321657           4.44587944
    C           0.72658700          -0.89723178           5.30243982
    H           6.53917031          -0.63764242          -2.15852752
    H           6.84136832          -1.00966727           0.04679604
    H           7.10502256          -1.32730384           1.91581421
    H           7.32560620          -1.70460340           4.22561442
    H           5.39426945          -1.64060665           5.69203082
    H           3.11898341          -1.35055659           5.98506307
    H           3.63871536           0.52268438          -7.11862781
    H           5.88178923           0.07513691          -6.31065084
    H           6.29014171          -0.32284022          -4.03005612
    H           1.38106268           0.79028477          -6.69633521
    H          -0.86722800           1.06496099          -6.32532436
    H          -3.11972684           1.34576223          -5.98572606
    H          -7.10452685           1.32973724          -1.91542767
    H          -7.32532435           1.70628356          -4.22529852
    H          -5.39464044           1.63769585          -5.69239704
    H          -6.53862070           0.64090606           2.15898371
    H          -6.84036615           1.01619187          -0.04575372
    H          -3.63873541          -0.52304050           7.11851819
    H          -5.88149034          -0.07297902           6.31089533
    H          -6.28963768           0.32636187           4.03056650
    H          -1.38143956          -0.79243908           6.69597647
    H           0.86674884          -1.06802118           6.32487464
    C           6.33934777           2.87166564           3.57054061
    C           5.01267413           3.17517424           3.48807548
    C           4.58130817           4.20864587           2.67518820
    C           5.51142011           4.92662823           1.95404832
    C           6.84663280           4.62806495           2.02505532
    C           7.24724631           3.59222367           2.81883798
    C           9.66512545           3.61249523           2.48895287
    C          11.39662309           4.70477775           1.37938881
    C          11.96675407           3.74190145           2.12693563
    S           9.75476124           4.90371724           1.40999966
    S          11.03034331           2.76315109           3.06218981
    C           8.55544201           3.16023612           3.09399048
    H           6.67198709           2.07170546           4.18716342
    H           4.31203769           2.61674735           4.05659959
    H           3.54675522           4.45151422           2.61584132
    H           5.20133151           5.72785649           1.33331988
    H           7.55654144           5.18664982           1.48356250
    H          11.94084622           5.37038671           0.76614866
    H          13.01410614           3.55534719           2.13044426
    H           8.72342465           3.62947351           4.02185962
