108
  -184.07216388
    C           3.47245745          -0.47803488          -1.29523875
    C           3.64217999          -0.80317007           0.08723209
    C           2.54671899          -0.64717592           0.98724520
    C           1.26928446          -0.29321325           0.50214816
    C           1.08146516          -0.04344132          -0.89627210
    C           2.18464335          -0.09999013          -1.77670880
    C          -0.21904087           0.24398873          -1.39061315
    C          -0.40670500           0.47726513          -2.78180676
    C           0.70958504           0.45202529          -3.65948426
    C           2.00563932           0.18107205          -3.16670120
    C           4.58647583          -0.49971229          -2.17260167
    C           5.80627029          -0.96692185          -1.67057736
    C           5.92665614          -1.42678289          -0.37082383
    C           4.89287198          -1.27211419           0.56370351
    C           2.74099452          -0.87289813           2.38442864
    C           1.64874181          -0.74848041           3.27024478
    C           0.35023165          -0.45609672           2.77803589
    C           0.15938708          -0.22427584           1.38735087
    C           5.12293380          -1.41169539           1.99765064
    C           4.03049046          -1.21109313           2.88267115
    C          -1.14376303           0.04862132           0.89163359
    C          -1.33468561           0.27964142          -0.51000307
    C           3.12148151           0.16114948          -4.05181720
    C           4.42811402          -0.13053939          -3.57247721
    C           6.39279601          -1.61267311           2.55159405
    C           6.60085057          -1.64641324           3.93357926
    C           5.53941377          -1.54107966           4.79750380
    C           4.23135221          -1.33119645           4.29570611
    C           3.13388570          -1.22245153           5.16098313
    C           2.91806212           0.40843872          -5.44742274
    C           4.03065138           0.36688148          -6.32475460
    C           5.29158658           0.11718213          -5.84132046
    C           5.49437423          -0.12085184          -4.47957161
    C           0.51364791           0.68619105          -5.06488380
    C           1.62201106           0.65415108          -5.92558790
    C          -1.70976227           0.74203301          -3.27818557
    C          -1.89528860           0.97668923          -4.68469516
    C          -0.78314944           0.93896621          -5.54058996
    C          -2.62968949           0.54279811          -1.00801576
    C          -2.82004419           0.77647245          -2.40531475
    C          -4.12381876           1.04007200          -2.91514023
    C          -4.29788527           1.27136570          -4.31703700
    C          -3.18607246           1.23529131          -5.17023225
    C          -3.75025369           0.57467519          -0.12451000
    C          -5.04965872           0.83730812          -0.63089803
    C          -5.25229713           1.07697822          -2.05307826
    C          -2.25006687           0.07903962           1.77065891
    C          -3.56038682           0.33974555           1.27155813
    C          -2.05942824          -0.15722145           3.16767317
    C          -3.17025295          -0.13445833           4.06002336
    C          -4.48240202           0.12643259           3.58402980
    C          -4.66826564           0.36663895           2.15926528
    C          -0.76170896          -0.41695626           3.65932441
    C          -6.51131695           1.34442698          -2.60371113
    C          -6.67704309           1.57233663          -3.97273195
    C          -5.59621212           1.53697410          -4.81836430
    C          -5.93279655           0.63204587           1.62229525
    C          -6.11639678           0.85927266           0.27509711
    C          -2.96043636          -0.37665629           5.45556586
    C          -4.06773049          -0.34689680           6.33896084
    C          -5.33007357          -0.08855820           5.86483180
    C          -5.53929885           0.14446487           4.50264049
    C          -0.56166268          -0.65992369           5.06247950
    C          -1.66593375          -0.63500522           5.92702762
    C           1.84239736          -0.96381673           4.67842348
    C           0.73367854          -0.91810943           5.53699775
    H           6.68993031          -0.94635760          -2.29530329
    H           6.86677362          -1.86830419          -0.06916638
    H           7.26629509          -1.71466100           1.91909632
    H           7.61000002          -1.75312144           4.32469226
    H           5.68966011          -1.59983025           5.87143863
    H           3.28448759          -1.34986450           6.22936082
    H           3.87327272           0.52296737          -7.38723409
    H           6.13578849           0.07847535          -6.52547099
    H           6.50998453          -0.31595001          -4.15041771
    H           1.47120357           0.81562987          -6.98945583
    H          -0.93158449           1.11399828          -6.60184775
    H          -3.32726019           1.41134957          -6.23277526
    H          -7.39789791           1.38457837          -1.97935002
    H          -7.66826788           1.77817776          -4.36840191
    H          -5.72209902           1.71453926          -5.88149183
    H          -6.79149203           0.66173842           2.28260366
    H          -7.11612032           1.06229260          -0.08965601
    H          -3.90310101          -0.52626287           7.39661549
    H          -6.17205951          -0.06350868           6.55192177
    H          -6.55627766           0.34403282           4.18156043
    H          -1.51313534          -0.82172659           6.98609508
    H           0.88079984          -1.10399307           6.59655512
    C           5.23024131           2.33110543           0.47670694
    C           4.43624927           3.46155557           0.45548006
    C           5.01153721           4.71338000           0.68093543
    C           6.39058497           4.80375959           0.82254181
    C           7.19357067           3.67291299           0.80658780
    C           6.62250533           2.39552133           0.66295834
    C           8.65172689           0.81730977           0.55107440
    C          11.23687165           0.58156088           0.35267002
    C          10.78045441          -0.67129002           0.44528895
    S          10.03796556           1.85994699           0.39002908
    S           9.06448563          -0.88497731           0.57024974
    C           7.34409728           1.14291484           0.65293456
    H           4.77316755           1.36147146           0.30726717
    H           3.37628399           3.38436960           0.23268088
    H           4.38289282           5.59848488           0.72611825
    H           6.84990583           5.78721092           0.90132152
    H           8.26899576           3.77643042           0.88285263
    H          12.28810479           0.82764444           0.28022995
    H          11.38534373          -1.56296397           0.42619121
    H           6.68839519           0.27935784           0.64258740
