108
  -183.91667720
    C           3.48272174          -0.32474620          -1.25168343
    C           3.67057721          -0.55676909           0.12240505
    C           2.55767944          -0.52123950           0.98128566
    C           1.28431433          -0.26272286           0.49652904
    C           1.09680750          -0.03161586          -0.87263220
    C           2.18647364          -0.06396764          -1.73009944
    C          -0.18640330           0.22810635          -1.35405189
    C          -0.37257476           0.45868147          -2.72628110
    C           0.71062806           0.42895176          -3.59765575
    C           1.98852886           0.16879465          -3.10527071
    C           4.59130855          -0.35884671          -2.10906786
    C           5.86525370          -0.61830269          -1.61511114
    C           6.04692437          -0.85309512          -0.26647524
    C           4.96175153          -0.82052114           0.60011658
    C           2.73736957          -0.75314946           2.35897857
    C           1.64492618          -0.72290316           3.22639128
    C           0.37473077          -0.46170439           2.72515248
    C           0.18442763          -0.22901357           1.35461065
    C           5.13850971          -1.05237253           2.00752272
    C           4.01322342          -1.01481980           2.86789804
    C          -1.09589874           0.03091107           0.87263501
    C          -1.28356009           0.26200966          -0.49705607
    C           3.07502978           0.14058357          -3.98700342
    C           4.38369650          -0.12079289          -3.51147633
    C           6.38550975          -1.31400737           2.53978305
    C           6.52993803          -1.53677159           3.90459624
    C           5.44648004          -1.50839278           4.76535360
    C           4.17519991          -1.24764819           4.26115925
    C           3.08219298          -1.21648095           5.12248749
    C           2.85352526           0.37831135          -5.37182993
    C           3.93771595           0.34958592          -6.24560602
    C           5.20524989           0.09195208          -5.75632298
    C           5.43842316          -0.14246325          -4.40440606
    C           0.51049533           0.66393007          -4.98480183
    C           1.57856440           0.63692757          -5.85783463
    C          -1.64837752           0.72029158          -3.22561918
    C          -1.82487973           0.95226913          -4.61604537
    C          -0.75329727           0.92345719          -5.48448800
    C          -2.55885953           0.52182170          -0.98173503
    C          -2.73560840           0.75218746          -2.35830289
    C          -4.01546269           1.01692376          -2.86883449
    C          -4.17264235           1.24585608          -4.26138620
    C          -3.08537298           1.21267232          -5.12163262
    C          -3.66945093           0.55852211          -0.12165939
    C          -4.96291942           0.82115937          -0.60057203
    C          -5.13938157           1.05530690          -2.00699797
    C          -2.18713893           0.06421135           1.73113966
    C          -3.48140221           0.32711304           1.25106580
    C          -1.98711803          -0.16987602           3.10371166
    C          -3.07578601          -0.14056939           3.98893905
    C          -4.38279734           0.12401441           3.51050524
    C          -4.59177681           0.36326263           2.10992545
    C          -0.71341665          -0.43217785           3.59902337
    C          -6.38904587           1.31744824          -2.53702009
    C          -6.52807369           1.54089435          -3.90363143
    C          -5.44706181           1.50856562          -4.76384041
    C          -5.86419553           0.62413265           1.61424762
    C          -6.04855800           0.85264209           0.26746953
    C          -2.85295492          -0.37909208           5.37008423
    C          -3.93851538          -0.34865347           6.24544508
    C          -5.20391832          -0.08973658           5.75702705
    C          -5.43775983           0.14596541           4.40469270
    C          -0.50977680          -0.66796623           4.98293420
    C          -1.57962786          -0.63967581           5.85800553
    C           1.82714263          -0.95612898           4.61326302
    C           0.74953041          -0.92727265           5.48597920
    H           6.69043965          -0.63841291          -2.29957211
    H           7.01558764          -1.05680464           0.13256915
    H           7.21049351          -1.33815141           1.83412060
    H           7.50432322          -1.73944640           4.28783754
    H           5.44348436          -1.67007419           5.83513950
    H           3.15664693          -1.38587894           6.18397810
    H           3.64747382           0.54372230          -7.27050356
    H           6.03539897           0.06957180          -6.42600313
    H           6.42170560          -0.34904778          -3.98491741
    H           1.36330675           0.82270136          -6.89865937
    H          -0.89637452           1.10057551          -6.53797084
    H          -3.15691509           1.38053125          -6.18446210
    H          -7.21798830           1.33456997          -1.83154324
    H          -7.50367929           1.74178207          -4.28827643
    H          -5.44383476           1.66609504          -5.83528594
    H          -6.68901179           0.64272317           2.30071471
    H          -7.02261871           1.05625304          -0.13488898
    H          -3.64771754          -0.54468337           7.27041238
    H          -6.03548067          -0.06707721           6.42638537
    H          -6.42138422           0.35312529           3.98546128
    H          -1.36402286          -0.82557017           6.89742513
    H           0.89582297          -1.10455161           6.53684957
    C           9.63709186          -0.00803309           1.13449604
    C          10.98625901          -0.39645140           1.13255548
    C          11.93683061           0.61992238           1.14815317
    C          11.63170611           1.98772851           1.16253870
    C          10.28926904           2.38025666           1.19313158
    C           9.32614386           1.34806604           1.15656812
    C           7.25407800           2.71462061           1.18378424
    C           6.40045181           5.22044758           1.10539353
    C           5.13308097           4.31402759           1.05162758
    S           7.99915313           4.34321363           1.25525019
    S           5.49600438           2.51835163           1.06962786
    C           7.93669935           1.56548442           0.82157531
    H           8.78510956          -0.69731321           1.09456182
    H          11.18372721          -1.47018219           1.11403004
    H          12.98497874           0.31206932           1.15283318
    H          12.41066716           2.76777050           1.15247877
    H          10.01146174           3.45208299           1.13599522
    H           6.35161407           6.28308788           1.09621792
    H           4.13689100           4.67351216           1.05084564
    H           7.48547247           0.99347688          -0.04069049
