108
  -183.49425174
    C           3.36261277          -0.31505864          -1.20680984
    C           3.54393208          -0.53839646           0.11623643
    C           2.47742195          -0.50541686           0.94728521
    C           1.24391633          -0.25400650           0.47831426
    C           1.06293378          -0.03104183          -0.84256725
    C           2.11829144          -0.06305988          -1.67303582
    C          -0.17884257           0.21920421          -1.30363540
    C          -0.35922781           0.44106258          -2.61999619
    C           0.69888321           0.40895611          -3.45089880
    C           1.93548585           0.15987146          -2.99391557
    C           4.41275594          -0.34117540          -2.06138897
    C           5.64278195          -0.59537135          -1.56143738
    C           5.82286886          -0.81703122          -0.24815674
    C           4.77893163          -0.79225939           0.61042411
    C           2.65669530          -0.72851388           2.26862153
    C           1.59505124          -0.69493995           3.08818016
    C           0.35884963          -0.44346016           2.61965214
    C           0.17845704          -0.22092274           1.30337328
    C           4.97055653          -1.01987907           1.94949308
    C           3.88967414          -0.98248278           2.75998241
    C          -1.06284389           0.03039592           0.84247216
    C          -1.24384490           0.25338734          -0.47845504
    C           2.98439492           0.13273199          -3.84558732
    C           4.23710069          -0.11611886          -3.40304686
    C           6.19029424          -1.27812049           2.48321093
    C           6.34508782          -1.50041083           3.81998680
    C           5.27359046          -1.46500719           4.63432120
    C           4.04835758          -1.20492971           4.09512395
    C           2.98996888          -1.17405338           4.92838513
    C           2.77826613           0.35990499          -5.17328296
    C           3.80682972           0.34224663          -6.06826261
    C           5.05142044           0.09377583          -5.61918140
    C           5.26192482          -0.13404901          -4.29097747
    C           0.50719615           0.63465532          -4.78325745
    C           1.54083550           0.61085837          -5.64439313
    C          -1.59541468           0.69236959          -3.08853441
    C          -1.76897266           0.91574925          -4.42385810
    C          -0.72295699           0.88744154          -5.27084196
    C          -2.47754358           0.50491181          -0.94743242
    C          -2.65674522           0.72727205          -2.26871176
    C          -3.88988178           0.98206252          -2.75994424
    C          -4.04856026           1.20305378          -4.09539495
    C          -2.99077436           1.17035796          -4.92883637
    C          -3.54386304           0.53905524          -0.11616750
    C          -4.77844302           0.79491864          -0.61005483
    C          -4.97002895           1.02163074          -1.94912457
    C          -2.11839967           0.06262796           1.67304360
    C          -3.36253888           0.31578997           1.20693812
    C          -1.93557883          -0.16093365           2.99365398
    C          -2.98457984          -0.13271233           3.84539247
    C          -4.23651206           0.11845498           3.40325988
    C          -4.41227433           0.34398211           2.06180895
    C          -0.69924094          -0.41144924           3.45039097
    C          -6.18997083           1.28093218          -2.48285527
    C          -6.34498097           1.50146849          -3.81968825
    C          -5.27380482           1.46356639          -4.63448085
    C          -5.64225613           0.60011943           1.56212094
    C          -5.82217480           0.82187901           0.24903922
    C          -2.77829679          -0.36113186           5.17309696
    C          -3.80697438          -0.34236225           6.06823309
    C          -5.05126786          -0.09114563           5.61956824
    C          -5.26146455           0.13795327           4.29169808
    C          -0.50730235          -0.63827480           4.78261203
    C          -1.54175529          -0.61403066           5.64392431
    C           1.76874808          -0.91948903           4.42322360
    C           0.72180364          -0.89186301           5.27025107
    H           6.53498705          -0.63840118          -2.14927011
    H           6.83480853          -1.00761654           0.03920804
    H           7.10035943          -1.32818431           1.92578531
    H           7.31965952          -1.70362192           4.22463982
    H           5.39579753          -1.63973000           5.68455198
    H           3.11801674          -1.34922809           5.97710061
    H           3.64219764           0.52121912          -7.11198774
    H           5.87649993           0.07555185          -6.30797186
    H           6.28322072          -0.32060023          -4.03810630
    H           1.38226903           0.78895395          -6.68842726
    H          -0.86609807           1.06360201          -6.31717384
    H          -3.11874087           1.34444642          -5.97776569
    H          -7.09990986           1.33046816          -1.92540104
    H          -7.31939293           1.70527961          -4.22432579
    H          -5.39616529           1.63682183          -5.68491651
    H          -6.53433328           0.64156274           2.14967717
    H          -6.83374952           1.01410238          -0.03817860
    H          -3.64219577          -0.52148610           7.11183810
    H          -5.87607912          -0.07341698           6.30812297
    H          -6.28252373           0.32403091           4.03866871
    H          -1.38261875          -0.79101965           6.68806691
    H           0.86565990          -1.06657316           6.31672710
    C          11.56548113          -3.89266249          -0.98908997
    C          11.43815560          -4.19654008           0.32936330
    C          10.24972076          -4.66245689           0.81779190
    C           9.20332151          -4.81214435          -0.04533038
    C           9.34005405          -4.50695604          -1.36561470
    C          10.51531435          -4.05533497          -1.84897807
    C          10.04286436          -3.72454712          -4.21943576
    C           8.44414607          -3.88209014          -5.85257700
    C           9.43287014          -3.45851217          -6.41393458
    S           8.50879602          -4.17964405          -4.28333293
    S          10.76783311          -3.21804412          -5.57141549
    C          10.79417383          -3.67839121          -3.16120974
    H          12.50956050          -3.53760930          -1.35471729
    H          12.27197065          -4.06306452           0.99219512
    H          10.13944006          -4.89605839           1.85867403
    H           8.25909691          -5.16779040           0.31997810
    H           8.50168802          -4.62285695          -2.02101178
    H           7.57150853          -4.05957539          -6.25927624
    H           9.51527282          -3.25285565          -7.36811157
    H          10.72749755          -2.63133034          -3.01038617
