108
  -184.09956115
    C           3.92228197          -0.90057348          -1.53281271
    C           4.10511816          -1.12262960          -0.13803682
    C           3.00847193          -0.94600758           0.75413043
    C           1.73879344          -0.57588204           0.26234260
    C           1.55533621          -0.35242070          -1.13567971
    C           2.64421349          -0.50223058          -2.02068656
    C           0.28427639           0.05124346          -1.62076794
    C           0.11101832           0.30992892          -3.00673130
    C           1.20718924           0.16874116          -3.89190771
    C           2.46849029          -0.23716515          -3.41117888
    C           5.01153927          -1.05899024          -2.42617918
    C           6.23934750          -1.47941623          -1.90547878
    C           6.41704902          -1.69247634          -0.55573988
    C           5.37850434          -1.49742815           0.35976281
    C           3.20068107          -1.12228956           2.15624779
    C           2.11901206          -0.93646922           3.04005792
    C           0.84053052          -0.57955286           2.54676805
    C           0.64815403          -0.39415003           1.15195826
    C           5.58221734          -1.64909177           1.78874892
    C           4.48433264          -1.46129719           2.66345204
    C          -0.62685418          -0.00541355           0.66494633
    C          -0.81041356           0.21922996          -0.73314144
    C           3.56455283          -0.36520694          -4.30624601
    C           4.83870345          -0.77447704          -3.83923525
    C           6.83354660          -1.93819687           2.33827978
    C           7.01523608          -2.07240635           3.71505797
    C           5.95737609          -1.91598012           4.57594476
    C           4.67213875          -1.60349918           4.07348735
    C           3.58612424          -1.42927092           4.93719820
    C           3.38159157          -0.07317195          -5.69334091
    C           4.47745554          -0.19067943          -6.57980787
    C           5.70609372          -0.58369129          -6.10916593
    C           5.88688982          -0.87248308          -4.75653308
    C           1.03156274           0.45082494          -5.28853493
    C           2.12300450           0.32551332          -6.15664450
    C          -1.15319058           0.72156477          -3.49336512
    C          -1.32074584           0.98922011          -4.89379666
    C          -0.22659391           0.85144419          -5.75757913
    C          -2.07029213           0.62746821          -1.22022113
    C          -2.24373971           0.87638206          -2.61394296
    C          -3.50954891           1.28529861          -3.11385777
    C          -3.66960489           1.53560398          -4.51205369
    C          -2.57558194           1.38806451          -5.37119135
    C          -3.16762319           0.80299301          -0.32815390
    C          -4.43306614           1.20864658          -0.82215193
    C          -4.61523803           1.44825795          -2.24247010
    C          -1.70649025           0.17978816           1.55465569
    C          -2.98486225           0.57726390           1.06639058
    C          -1.51383671          -0.02220133           2.95337977
    C          -2.59696279           0.15435017           3.85626111
    C          -3.87921735           0.53092234           3.38484628
    C          -4.06837287           0.75596168           1.96303163
    C          -0.24346563          -0.39285792           3.43827325
    C          -5.84133099           1.83929136          -2.78504554
    C          -5.99599724           2.07754577          -4.15063357
    C          -4.93319926           1.93364639          -5.00803738
    C          -5.30145890           1.15763266           1.44023917
    C          -5.47804830           1.37686318           0.09159515
    C          -2.39127785          -0.05136997           5.25561276
    C          -3.47503422           0.11192302           6.14979679
    C          -4.71385920           0.46588346           5.67437859
    C          -4.91509677           0.67551739           4.31031739
    C          -0.04270267          -0.57954282           4.84736122
    C          -1.12182300          -0.40862497           5.72315768
    C           2.31316116          -1.10193420           4.45284818
    C           1.22913984          -0.92637521           5.32242106
    H           7.08760236          -1.63758929          -2.55953759
    H           7.39588230          -2.00724668          -0.21619359
    H           7.69767563          -2.06549057           1.69869391
    H           8.00263388          -2.30264569           4.09811797
    H           6.09165719          -2.02352879           5.64613989
    H           3.73270881          -1.54644893           6.00560586
    H           4.33058620           0.03514569          -7.62969291
    H           6.54777460          -0.67266772          -6.78622476
    H           6.87432610          -1.17627044          -4.43222904
    H           1.99030867           0.54400496          -7.21084471
    H          -0.35572041           1.06270517          -6.81384606
    H          -2.70131132           1.58746592          -6.43004435
    H          -6.70801079           1.96667289          -2.14868391
    H          -6.96577474           2.38019214          -4.52836241
    H          -5.04615025           2.11977661          -6.06985396
    H          -6.15100397           1.31076375           2.09382703
    H          -6.45751447           1.69050766          -0.24692923
    H          -3.31136766          -0.04870122           7.20910773
    H          -5.54686327           0.58807322           6.35698507
    H          -5.90871825           0.95483874           3.98325487
    H          -0.96952102          -0.55514583           6.78714063
    H           1.37785946          -1.05873908           6.38885205
    C           2.42164381           2.53150753           1.07748875
    C           1.22801574           2.89366020           0.48135417
    C           1.16458054           3.09795269          -0.89248316
    C           2.31118421           2.93356456          -1.65840996
    C           3.50814311           2.56740362          -1.06625629
    C           3.59305267           2.35932322           0.31836094
    C           6.05050553           1.77535588           0.53638474
    C           8.23600440           1.52863435          -0.82656559
    C           8.57928074           1.22509033           0.42405856
    S           6.57557656           1.95490504          -1.11550301
    S           7.33097334           1.29024202           1.62579640
    C           4.79932675           1.96884383           1.01699668
    H           2.45749118           2.37143925           2.15013299
    H           0.33735403           3.01288748           1.08863999
    H           0.22869116           3.37852068          -1.36158093
    H           2.27116514           3.08502197          -2.73177495
    H           4.38024524           2.43709472          -1.69403740
    H           8.90077807           1.53326766          -1.67655411
    H           9.56781074           0.94369683           0.75271806
    H           4.67386784           1.81015695           2.08490442
