108
  -184.10019306
    C           3.65898759          -0.19468834          -1.03915287
    C           3.82266253          -0.43682906           0.35478602
    C           2.68489769          -0.40764695           1.21337181
    C           1.39944800          -0.15217323           0.68973023
    C           1.23779690           0.10201641          -0.70602979
    C           2.36175253           0.08475556          -1.55916697
    C          -0.05426903           0.37890623          -1.22404706
    C          -0.21279502           0.64677617          -2.60975189
    C           0.91693145           0.63423797          -3.46361277
    C           2.19919016           0.35307815          -2.95069316
    C           4.78442188          -0.21986971          -1.90119801
    C           6.03634680          -0.50491081          -1.34810727
    C           6.19585587          -0.73004336           0.00180365
    C           5.11276919          -0.68844847           0.88498436
    C           2.84818012          -0.62642665           2.61295343
    C           1.72257311          -0.60158592           3.46061787
    C           0.42950458          -0.36319049           2.93435810
    C           0.26606038          -0.12908809           1.54366718
    C           5.28653057          -0.87350081           2.31469919
    C           4.14468585          -0.84092884           3.15453789
    C          -1.02779571           0.13710797           1.02384696
    C          -1.18867713           0.39507774          -0.37130769
    C           3.32580565           0.33953397          -3.81696694
    C           4.62073780           0.05328294          -3.31752444
    C           6.54044642          -1.05959528           2.89858469
    C           6.68974471          -1.22397508           4.27594874
    C           5.59383864          -1.20819422           5.10272579
    C           4.30025339          -1.01870807           4.56368726
    C           3.17322322          -0.99073160           5.39275649
    C           3.15103976           0.61693749          -5.20783913
    C           4.27493535           0.60260355          -6.06617483
    C           5.52247846           0.32214372          -5.56521368
    C           5.69585259           0.05073904          -4.20844977
    C           0.75169005           0.91065646          -4.86265084
    C           1.87201891           0.89765148          -5.70192312
    C          -1.49962891           0.92716393          -3.13002098
    C          -1.65368779           1.20139076          -4.53076802
    C          -0.52737344           1.18835183          -5.36355414
    C          -2.47100671           0.67060550          -0.89226981
    C          -2.62697328           0.93923280          -2.28436274
    C          -3.91442342           1.21906367          -2.81750964
    C          -4.05786737           1.48804723          -4.21382664
    C          -2.92885633           1.47619975          -5.04015689
    C          -3.60995400           0.68670799          -0.03585447
    C          -4.89616653           0.96454332          -0.56318900
    C          -5.05769082           1.23310580          -1.98066299
    C          -2.15145143           0.15659827           1.87717943
    C          -3.44996334           0.42687345           1.35555601
    C          -1.98519001          -0.08653652           3.27273159
    C          -3.11115006          -0.06826562           4.13977759
    C          -4.41126990           0.18373233           3.63461106
    C          -4.57677947           0.44378499           2.21576221
    C          -0.69863362          -0.33807752           3.79044498
    C          -6.30168045           1.50697113          -2.55341637
    C          -6.43914034           1.76770049          -3.91638831
    C          -5.34131711           1.76165176          -4.74141665
    C          -5.82941068           0.72362473           1.66079506
    C          -5.98394846           0.97576113           0.31524887
    C          -2.93026156          -0.30540075           5.53705674
    C          -4.05314190          -0.29355748           6.39610952
    C          -5.30765226          -0.06033447           5.88798132
    C          -5.48682919           0.17558850           4.52530175
    C          -0.52637709          -0.55854024           5.19803314
    C          -1.64396359          -0.53970431           6.03820791
    C           1.88673276          -0.79994281           4.87258061
    C           0.76416957          -0.76711404           5.70893339
    H           6.91651029          -0.54818736          -1.97699305
    H           7.19410246          -0.93587839           0.36670493
    H           7.43426253          -1.07658287           2.28784953
    H           7.68255490          -1.36518407           4.68706667
    H           5.70238174          -1.33789047           6.17323201
    H           3.29704072          -1.12651096           6.46152494
    H           4.13432116           0.81420076          -7.11976324
    H           6.38526554           0.30933048          -6.22100189
    H           6.69790506          -0.16468501          -3.85977547
    H           1.74498898           1.10828545          -6.75831089
    H          -0.64795475           1.39674982          -6.42129384
    H          -3.04269600           1.68291857          -6.09886598
    H          -7.19599901           1.52144511          -1.94343446
    H          -7.42412461           1.97509747          -4.31819886
    H          -5.44163511           1.96310886          -5.80162240
    H          -6.71306923           0.75145636           2.28587535
    H          -6.98102993           1.18768806          -0.04960928
    H          -3.90679913          -0.47230362           7.45504385
    H          -6.17069071          -0.05578402           6.54365660
    H          -6.49448367           0.35473734           4.17196493
    H          -1.51093426          -0.70726743           7.10158436
    H           0.89326087          -0.91800737           6.77515094
    C           3.44485892           2.05204344           5.77680367
    C           2.40707233           1.98941002           6.68797933
    C           1.09740396           2.19613616           6.27079070
    C           0.84442412           2.48930675           4.93472599
    C           1.87920554           2.55922655           4.02051335
    C           3.20797179           2.34185779           4.41895612
    C           4.39518528           2.63700252           2.19917580
    C           3.98683279           3.09667560          -0.31295310
    C           5.30701571           2.95340006          -0.20211243
    S           3.04815575           2.95246521           1.14275035
    S           5.93837450           2.63986429           1.38038544
    C           4.34616831           2.38996984           3.53247200
    H           4.46305237           1.88612758           6.11194533
    H           2.61661032           1.76975210           7.72874668
    H           0.28138604           2.14626357           6.98177712
    H          -0.17438284           2.65762157           4.60317359
    H           1.64718065           2.78483991           2.98764650
    H           3.45156221           3.29284221          -1.22935039
    H           6.01348632           3.01580212          -1.01552688
    H           5.30455870           2.20953231           4.01192220
