108
  -183.74190133
    C           3.48982361          -0.59442774          -1.31336120
    C           3.67389451          -0.88468978           0.07548164
    C           2.54513929          -0.87664697           0.95668017
    C           1.24628792          -0.65574441           0.45002343
    C           1.06558199          -0.34734299          -0.94167520
    C           2.18126121          -0.29847473          -1.80491707
    C          -0.22026030           0.03327790          -1.41808490
    C          -0.38906505           0.40214114          -2.78180649
    C           0.72679582           0.41900305          -3.65262873
    C           2.01155517           0.10291205          -3.16766815
    C           4.61311428          -0.46901003          -2.17204711
    C           5.88428625          -0.69256101          -1.62919329
    C           6.06160447          -0.98270836          -0.29321558
    C           4.98239837          -1.04978848           0.60010220
    C           2.75399608          -0.96472450           2.37122790
    C           1.65969356          -0.85625892           3.25223425
    C           0.35267009          -0.63581901           2.74828846
    C           0.14121214          -0.52837807           1.34641855
    C           5.18773020          -1.17756001           2.03446274
    C           4.06669192          -1.11788933           2.89679406
    C          -1.14665743          -0.17077086           0.86124233
    C          -1.33279873           0.09645501          -0.53353869
    C           3.12698896           0.15325674          -4.04767888
    C           4.43123907          -0.12270982          -3.57210061
    C           6.45366092          -1.35121628           2.60102044
    C           6.63074320          -1.54838682           3.97156897
    C           5.55408069          -1.50645978           4.82120969
    C           4.25928839          -1.25224440           4.30751643
    C           3.15481057          -1.19761598           5.16267909
    C           2.92635584           0.41181273          -5.44009322
    C           4.02544528           0.36397097          -6.33188686
    C           5.28606686           0.10678333          -5.85057563
    C           5.48668862          -0.11882701          -4.48868614
    C           0.53608433           0.70523600          -5.04916902
    C           1.63565859           0.65963955          -5.91555374
    C          -1.67612381           0.73859052          -3.27119877
    C          -1.86218450           0.99333080          -4.67377016
    C          -0.75520373           0.95212134          -5.53332511
    C          -2.60257167           0.49161016          -1.01154911
    C          -2.78267971           0.77432737          -2.40062666
    C          -4.08007393           1.05034821          -2.91283868
    C          -4.26015819           1.27349575          -4.31358799
    C          -3.15029751           1.23980644          -5.16391073
    C          -3.71689980           0.57291711          -0.12348430
    C          -5.01278224           0.85103232          -0.63119042
    C          -5.20529598           1.07779066          -2.05376318
    C          -2.22842152          -0.00627269           1.75602853
    C          -3.52648531           0.33247046           1.26910114
    C          -2.02555687          -0.19334881           3.15706019
    C          -3.12389866          -0.12014252           4.05693082
    C          -4.43175422           0.13710372           3.57917096
    C          -4.62934769           0.38473123           2.16078241
    C          -0.73477400          -0.48114512           3.64399416
    C          -6.46075106           1.33591379          -2.61134132
    C          -6.63335964           1.56447558          -3.97690551
    C          -5.55586595           1.53077556          -4.82577039
    C          -5.89546059           0.64010030           1.62220340
    C          -6.08073294           0.86390768           0.27310254
    C          -2.92060876          -0.36761234           5.45070527
    C          -4.02479277          -0.35311859           6.33829098
    C          -5.28608649          -0.09682928           5.85728779
    C          -5.48531015           0.13898086           4.49760501
    C          -0.52843733          -0.65824365           5.05576305
    C          -1.62891727          -0.62133552           5.92263041
    C           1.86551952          -0.96666135           4.67027934
    C           0.76317786          -0.90783604           5.53522635
    H           6.77656104          -0.63187861          -2.24240751
    H           7.08260399          -1.10892896           0.05016404
    H           7.33799652          -1.38819404           1.97920062
    H           7.62581550          -1.75821501           4.35149827
    H           5.68481887          -1.70207023           5.88037509
    H           3.29791556          -1.39306593           6.22089125
    H           3.86684301           0.52271612          -7.39239810
    H           6.13498257           0.06477797          -6.52546416
    H           6.49727278          -0.33628658          -4.16968125
    H           1.48748168           0.80786768          -6.97991755
    H          -0.90502084           1.10265989          -6.59884358
    H          -3.29687316           1.40243002          -6.22682331
    H          -7.34355866           1.37570483          -1.98808039
    H          -7.63035992           1.77094592          -4.35547229
    H          -5.69129483           1.70924913          -5.88680566
    H          -6.77919012           0.65793364           2.24944774
    H          -7.09580789           1.04915561          -0.05751285
    H          -3.87023337          -0.53278394           7.39577430
    H          -6.13768363          -0.06742641           6.52942564
    H          -6.49828665           0.33566795           4.17369765
    H          -1.48335953          -0.81626787           6.98040619
    H           0.90875316          -1.10360544           6.59400574
    C           6.23506695           2.03512306           0.54900130
    C           7.53822825           2.50688738           0.50587851
    C           7.79916960           3.83343617           0.19757378
    C           6.73672105           4.70525906           0.01419882
    C           5.43057735           4.24329314           0.05051595
    C           5.16533863           2.88621405           0.23659472
    C           2.64036277           2.99657087           0.31671484
    C           0.43442816           4.28607233           0.05569625
    C           0.05017875           3.06692038           0.42652699
    S           2.15426465           4.65462469           0.07845840
    S           1.33132696           1.99792389           0.88979329
    C           3.82061074           2.36988554           0.17124184
    H           6.06318386           1.01691625           0.86316365
    H           8.35967910           1.82581412           0.67240161
    H           8.81977660           4.18363236           0.08159033
    H           6.91961845           5.74158417          -0.21905203
    H           4.59227625           4.90858486          -0.08898273
    H          -0.23350792           5.05142787          -0.31655868
    H          -0.94554039           2.63687727           0.36644102
    H           3.75965245           1.28988124           0.11117211
