108
  -182.67189333
    C           3.35977993          -0.31474141          -1.20625216
    C           3.54107832          -0.53804115           0.11659252
    C           2.47979748          -0.50600192           0.94883784
    C           1.24233274          -0.25338282           0.47586321
    C           1.06202262          -0.03130919          -0.83971139
    C           2.12017258          -0.06300671          -1.67527439
    C          -0.17884925           0.21928271          -1.30430688
    C          -0.35901198           0.44083521          -2.61859830
    C           0.69739118           0.40953687          -3.45333582
    C           1.93746661           0.15927286          -2.99179437
    C           4.40174912          -0.33853305          -2.06815536
    C           5.61656516          -0.59272698          -1.55310339
    C           5.79538854          -0.81297603          -0.24812379
    C           4.77017532          -0.79242774           0.62030028
    C           2.65803896          -0.72830768           2.26595524
    C           1.59427824          -0.69523730           3.09103851
    C           0.35867995          -0.44321213           2.61823178
    C           0.17861436          -0.22107121           1.30403819
    C           4.95918291          -1.01702473           1.94150390
    C           3.88760157          -0.98217431           2.76000802
    C          -1.06209140           0.03071323           0.83961133
    C          -1.24238646           0.25280337          -0.47595297
    C           2.98243938           0.13292108          -3.84486378
    C           4.22826306          -0.11648268          -3.39189825
    C           6.16479939          -1.27599635           2.49414942
    C           6.32466630          -1.49550229           3.80723802
    C           5.25683231          -1.45885710           4.60961937
    C           4.04736180          -1.20281434           4.08193765
    C           2.98659577          -1.16937743           4.90036132
    C           2.78077780           0.35762296          -5.16036635
    C           3.79749573           0.33935174          -6.03942538
    C           5.03544549           0.09341282          -5.60074342
    C           5.23462333          -0.12961497          -4.29362639
    C           0.50892029           0.63205507          -4.76740876
    C           1.54531740           0.60608143          -5.61653272
    C          -1.59463131           0.69269183          -3.09141594
    C          -1.76685634           0.91310130          -4.40805949
    C          -0.71878802           0.88266733          -5.24271051
    C          -2.47984367           0.50547982          -0.94889975
    C          -2.65819330           0.72710093          -2.26611643
    C          -3.88765946           0.98173082          -2.76002995
    C          -4.04764046           1.20096793          -4.08214978
    C          -2.98715985           1.16569682          -4.90087049
    C          -3.54096355           0.53867760          -0.11649020
    C          -4.76977512           0.79507279          -0.61989793
    C          -4.95890015           1.01880088          -1.94118989
    C          -2.12022759           0.06258139           1.67519078
    C          -3.35967093           0.31543291           1.20634495
    C          -1.93763408          -0.16032116           2.99160897
    C          -2.98246521          -0.13293466           3.84479649
    C          -4.22795463           0.11881627           3.39221983
    C          -4.40133505           0.34135859           2.06855588
    C          -0.69775123          -0.41200792           3.45293957
    C          -6.16437235           1.27883902          -2.49368103
    C          -6.32451673           1.49655688          -3.80702108
    C          -5.25704008           1.45741774          -4.60973867
    C          -5.61584762           0.59755387           1.55380878
    C          -5.79465764           0.81782663           0.24884335
    C          -2.78097376          -0.35880219           5.16012330
    C          -3.79754052          -0.33950756           6.03932948
    C          -5.03507874          -0.09073752           5.60109161
    C          -5.23405276           0.13362707           4.29419261
    C          -0.50944645          -0.63559151           4.76684875
    C          -1.54581286          -0.60933448           5.61599501
    C           1.76631375          -0.91678207           4.40752759
    C           0.71810626          -0.88718831           5.24202604
    H           6.53774746          -0.63906895          -2.14751290
    H           6.83704519          -1.00755356           0.03667200
    H           7.10309232          -1.32896752           1.92843467
    H           7.32179452          -1.70420219           4.22642903
    H           5.39797179          -1.64035120           5.68655299
    H           3.11832509          -1.34961025           5.97935532
    H           3.64373781           0.52135974          -7.11455412
    H           5.87794866           0.07566057          -6.31025820
    H           6.28500488          -0.32035947          -4.04153268
    H           1.38196028           0.78932613          -6.69068314
    H          -0.86639711           1.06396662          -6.31935394
    H          -3.11905211           1.34482149          -5.98001018
    H          -7.10272944           1.33121898          -1.92802178
    H          -7.32156798           1.70587180          -4.22611559
    H          -5.39834872           1.63743809          -5.68690676
    H          -6.53726960           0.64217510           2.14798254
    H          -6.83609887           1.01408054          -0.03565865
    H          -3.64374820          -0.52161359           7.11442426
    H          -5.87769345          -0.07357374           6.31050454
    H          -6.28452562           0.32376628           4.04203213
    H          -1.38230895          -0.79135595           6.69031926
    H           0.86596520          -1.06689270           6.31891178
    C           2.78720779           9.08219195           6.21709767
    C           3.17061325           9.35110870           4.95773968
    C           4.23224221           8.72483510           4.43000404
    C           4.89283856           7.83395374           5.18373061
    C           4.49542602           7.57676305           6.44228768
    C           3.43210157           8.18830471           7.00336844
    C           3.32966919           7.21301559           9.29050594
    C           4.31448778           5.76282112          10.67868712
    C           3.30008301           6.29320105          11.33087220
    S           4.46197208           6.27296066           9.31621835
    S           2.54902080           7.27205233          10.54677001
    C           2.95432185           7.99929728           8.26143955
    H           1.90881793           9.60252039           6.62156647
    H           2.61942692          10.09165302           4.36292531
    H           4.55980416           8.94410938           3.40515300
    H           5.77056436           7.31727932           4.77314343
    H           5.06261107           6.84882478           7.03737219
    H           4.82143797           5.21015934          10.99664196
    H           3.09888047           6.09692943          12.08850510
    H           3.36396163           8.90116891           8.66452247
