108
  -182.94534996
    C           3.36200918          -0.31498677          -1.20668531
    C           3.54332425          -0.53831733           0.11632172
    C           2.47688010          -0.50525237           0.94672363
    C           1.24412638          -0.25413457           0.47898653
    C           1.06290617          -0.03093157          -0.84326613
    C           2.11794431          -0.06310986          -1.67235158
    C          -0.17869947           0.21911157          -1.30317022
    C          -0.35926191           0.44112352          -2.62037203
    C           0.69957608           0.40844886          -3.44815367
    C           1.93495143           0.16002372          -2.99440615
    C           4.41154474          -0.34114818          -2.06033901
    C           5.64275401          -0.59512849          -1.56257443
    C           5.82301364          -0.81714003          -0.24713731
    C           4.77746141          -0.79194312           0.60979078
    C           2.65632277          -0.72854741           2.26923158
    C           1.59497781          -0.69451097           3.08540261
    C           0.35891423          -0.44352138           2.62000737
    C           0.17844929          -0.22085414           1.30290347
    C           4.96960093          -1.01989523           1.95057158
    C           3.88909064          -0.98212384           2.75816700
    C          -1.06296904           0.03031139           0.84316824
    C          -1.24417796           0.25353009          -0.47908305
    C           2.98435502           0.13243661          -3.84355396
    C           4.23581049          -0.11581334          -3.40381554
    C           6.19070661          -1.27766853           2.48004212
    C           6.34584897          -1.50067128           3.82114095
    C           5.27359413          -1.46524107           4.63599280
    C           4.04721800          -1.20457030           4.09381062
    C           2.98987057          -1.17413498           4.92910356
    C           2.77744812           0.35977960          -5.17168906
    C           3.80647799           0.34256122          -6.06986668
    C           5.05200475           0.09394596          -5.62059192
    C           5.26321123          -0.13459557          -4.28810914
    C           0.50732601           0.63459518          -4.78301717
    C           1.54074415           0.61098446          -5.64506867
    C          -1.59532689           0.69194894          -3.08577122
    C          -1.76951441           0.91577151          -4.42349708
    C          -0.72279610           0.88757533          -5.27187160
    C          -2.47694484           0.50472729          -0.94678161
    C          -2.65648159           0.72733439          -2.26939523
    C          -3.88913545           0.98168754          -2.75817456
    C          -4.04751067           1.20269237          -4.09401129
    C          -2.99044767           1.17043112          -4.92962310
    C          -3.54321285           0.53896800          -0.11622912
    C          -4.77704735           0.79460458          -0.60935731
    C          -4.96930984           1.02168813          -1.95025951
    C          -2.11801063           0.06268652           1.67226036
    C          -3.36189699           0.31571458           1.20679266
    C          -1.93511088          -0.16108537           2.99421603
    C          -2.98438249          -0.13245925           3.84349008
    C          -4.23548261           0.11816971           3.40411965
    C          -4.41113059           0.34397246           2.06072258
    C          -0.69993582          -0.41094756           3.44774493
    C          -6.19028321           1.28050217          -2.47956692
    C          -6.34572375           1.50175806          -3.82090808
    C          -5.27381238           1.46381458          -4.63614506
    C          -5.64205276           0.59992561           1.56328074
    C          -5.82229112           0.82207481           0.24786912
    C          -2.77766418          -0.36097828           5.17143752
    C          -3.80651579          -0.34266490           6.06980047
    C          -5.05166022          -0.09129029           5.62094418
    C          -5.26265718           0.13859264           4.28867239
    C          -0.50785712          -0.63816693           4.78244900
    C          -1.54124688          -0.61420218           5.64454579
    C           1.76897006          -0.91948371           4.42297003
    C           0.72210942          -0.89205496           5.27119605
    H           6.53367875          -0.63839348          -2.14814413
    H           6.83332200          -1.00730279           0.03852760
    H           7.09906473          -1.32815970           1.92685908
    H           7.31830835          -1.70336366           4.22415004
    H           5.39560690          -1.63948892           5.68302952
    H           3.11781241          -1.34898150           5.97556181
    H           3.64241839           0.52093247          -7.11045107
    H           5.87522009           0.07556251          -6.30700317
    H           6.28157007          -0.32028284          -4.03878856
    H           1.38248728           0.78867664          -6.68689679
    H          -0.86588494           1.06332776          -6.31562063
    H          -3.11854082           1.34418004          -5.97622783
    H          -7.09868101           1.33043584          -1.92645354
    H          -7.31806778           1.70500653          -4.22383678
    H          -5.39598591           1.63656293          -5.68338408
    H          -6.53317624           0.64154371           2.14860619
    H          -6.83235407           1.01379176          -0.03751334
    H          -3.64243419          -0.52122871           7.11031714
    H          -5.87494637          -0.07345997           6.30724414
    H          -6.28106537           0.32371501           4.03929450
    H          -1.38284022          -0.79076407           6.68652901
    H           0.86544530          -1.06631694           6.31516521
    C           7.75347291           6.41676776           6.56822477
    C           7.41253647           6.36864718           7.88333611
    C           6.18610241           6.81681195           8.29843542
    C           5.32255835           7.31078138           7.35793629
    C           5.67036760           7.34956556           6.04142426
    C           6.88153536           6.89633294           5.62841874
    C           6.82473456           7.26315404           3.24188777
    C           5.65076884           8.01031309           1.50868587
    C           6.54619282           7.70308169           1.09288711
    S           5.34362147           7.91295444           3.06671803
    S           7.75222855           7.08336264           1.91044097
    C           7.36115638           6.92187500           4.33804581
    H           8.71097110           6.05112345           6.26507045
    H           8.10762740           5.98661765           8.60252634
    H           5.91502270           6.79107984           9.33119060
    H           4.36256637           7.67409620           7.66359073
    H           4.98245175           7.75112070           5.33149086
    H           4.72287808           8.48433330           0.97074891
    H           6.84584577           7.73199904          -0.06324021
    H           7.99713924           7.75893530           4.44382162
