108
  -183.32772401
    C           3.36061036          -0.31482337          -1.20638891
    C           3.54191252          -0.53812960           0.11646739
    C           2.47879331          -0.50574482           0.94818737
    C           1.24296077          -0.25362673           0.47691165
    C           1.06234077          -0.03117202          -0.84091524
    C           2.11938805          -0.06301551          -1.67433998
    C          -0.17879111           0.21923803          -1.30396683
    C          -0.35908888           0.44093362          -2.61917825
    C           0.69810858           0.40917647          -3.45157303
    C           1.93656605           0.15953592          -2.99261968
    C           4.40498799          -0.33938856          -2.06554211
    C           5.62545606          -0.59355218          -1.55622184
    C           5.80474123          -0.81436983          -0.24788331
    C           4.77257305          -0.79225497           0.61680164
    C           2.65739617          -0.72836639           2.26702118
    C           1.59450196          -0.69498360           3.08913946
    C           0.35876121          -0.44330448           2.61880433
    C           0.17857854          -0.22099660           1.30369567
    C           4.96255827          -1.01796437           1.94453273
    C           3.88813129          -0.98215817           2.75938979
    C          -1.06241855           0.03058980           0.84081410
    C          -1.24301758           0.25305843          -0.47700723
    C           2.98310174           0.13276459          -3.84441972
    C           4.23068184          -0.11623790          -3.39584100
    C           6.17342896          -1.27657188           2.48957010
    C           6.33182867          -1.49724267           3.81188498
    C           5.26239062          -1.46099559           4.61851007
    C           4.04720885          -1.20340014           4.08600722
    C           2.98772886          -1.17096501           4.90993839
    C           2.77952670           0.35837937          -5.16421271
    C           3.80043677           0.34044538          -6.04966744
    C           5.04106048           0.09358717          -5.60741189
    C           5.24410541          -0.13124643          -4.29190271
    C           0.50825557           0.63292964          -4.77264509
    C           1.54384260           0.60771317          -5.62606312
    C          -1.59484441           0.69243986          -3.08950879
    C          -1.76764882           0.91398945          -4.41327874
    C          -0.72009681           0.88429060          -5.25236192
    C          -2.47883417           0.50523295          -0.94824522
    C          -2.65755621           0.72716863          -2.26719761
    C          -3.88816384           0.98171779          -2.75940461
    C          -4.04748256           1.20154236          -4.08621824
    C          -2.98828395           1.16727969          -4.91045340
    C          -3.54179170           0.53878289          -0.11637039
    C          -4.77217609           0.79491421          -0.61638959
    C          -4.96228554           1.01975418          -1.94423137
    C          -2.11942948           0.06260789           1.67424748
    C          -3.36050220           0.31554387           1.20648527
    C          -1.93673529          -0.16057457           2.99244182
    C          -2.98312634          -0.13277287           3.84437180
    C          -4.23038841           0.11859115           3.39618153
    C          -4.40457369           0.34222678           2.06594113
    C          -0.69847208          -0.41164635           3.45119032
    C          -6.17298612           1.27940709          -2.48909674
    C          -6.33168168           1.49831015          -3.81167801
    C          -5.26260004           1.45956056          -4.61863769
    C          -5.62473502           0.59837519           1.55693136
    C          -5.80400540           0.81925408           0.24859694
    C          -2.77974383          -0.35956047           5.16397358
    C          -3.80047662          -0.34057562           6.04956237
    C          -5.04068771          -0.09091451           5.60775655
    C          -5.24354589           0.13526162           4.29245791
    C          -0.50881956          -0.63647538           4.77211770
    C          -1.54430101          -0.61094714           5.62551085
    C           1.76709225          -0.91768082           4.41277026
    C           0.71945389          -0.88879153           5.25167218
    H           6.53636899          -0.63883498          -2.14771850
    H           6.83578144          -1.00746219           0.03729450
    H           7.10172616          -1.32869155           1.92790891
    H           7.32061249          -1.70391705           4.22565977
    H           5.39717413          -1.64006081           5.68536413
    H           3.11815067          -1.34940109           5.97807615
    H           3.64329438           0.52121746          -7.11316777
    H           5.87702193           0.07563108          -6.30915642
    H           6.28383897          -0.32032694          -4.04060872
    H           1.38213793           0.78910889          -6.68940638
    H          -0.86622524           1.06375187          -6.31809496
    H          -3.11888036           1.34460489          -5.97873317
    H          -7.10136489           1.33095389          -1.92749439
    H          -7.32038531           1.70557884          -4.22534678
    H          -5.39755324           1.63714205          -5.68571593
    H          -6.53588931           0.64195947           2.14819168
    H          -6.83483537           1.01398075          -0.03628302
    H          -3.64330629          -0.52148757           7.11303822
    H          -5.87676717          -0.07353834           6.30940463
    H          -6.28335833           0.32374583           4.04110926
    H          -1.38248927          -0.79116162           6.68903880
    H           0.86578784          -1.06670384           6.31764674
    C           3.82527865           4.83347826          -1.13926292
    C           4.94154659           4.97721341          -1.88409118
    C           5.98041176           5.70305019          -1.41707736
    C           5.87239830           6.27461522          -0.19867269
    C           4.74855339           6.12108828           0.53553467
    C           3.70205605           5.39873311           0.08977400
    C           2.06352487           5.56615824           1.92255994
    C           1.67540105           6.42110392           3.94843663
    C           0.66939607           5.79907931           3.64901267
    S           2.79279870           6.43260916           2.94400979
    S           0.65201110           5.10922307           2.31750471
    C           2.51219852           5.18426238           0.74217965
    H           3.00580176           4.23571305          -1.53436347
    H           5.00226061           4.51444251          -2.86788337
    H           6.88070740           5.83234996          -2.01389645
    H           6.69488095           6.87138919           0.19179156
    H           4.68694830           6.60161418           1.50970212
    H           1.80789282           6.89856415           4.74034150
    H          -0.09156404           5.70631452           4.18865548
    H           1.94878736           5.88907795           0.17411702
