108
  -183.87728300
    C           3.45286165          -0.32338198          -1.23564470
    C           3.63946863          -0.55146945           0.11619548
    C           2.53599415          -0.51800232           0.97998937
    C           1.27168008          -0.25927245           0.48711807
    C           1.08529432          -0.03204344          -0.85929545
    C           2.16705623          -0.06272195          -1.72256481
    C          -0.18576212           0.22755770          -1.35146236
    C          -0.36814430           0.45202334          -2.68587339
    C           0.70478719           0.42497429          -3.56510693
    C           1.97516780           0.16499466          -3.06796452
    C           4.55607992          -0.35674944          -2.09722724
    C           5.82124867          -0.61635261          -1.59071061
    C           6.00153891          -0.83779703          -0.27478215
    C           4.92510135          -0.81111519           0.59979068
    C           2.71605678          -0.74664705           2.32673995
    C           1.63091706          -0.71620734           3.19706301
    C           0.36858415          -0.45419889           2.68473653
    C           0.18340232          -0.22846910           1.35230760
    C           5.11053764          -1.04773457           1.99324456
    C           3.98094208          -1.01560695           2.84674798
    C          -1.08354863           0.03096724           0.85916464
    C          -1.26935746           0.25853983          -0.48789947
    C           3.05228707           0.13915581          -3.95626482
    C           4.35453332          -0.12081973          -3.48659757
    C           6.34817369          -1.30527913           2.52626530
    C           6.47860098          -1.52874208           3.88294618
    C           5.41168736          -1.50400806           4.73226126
    C           4.14761149          -1.24937408           4.22601461
    C           3.04986243          -1.21028657           5.08174185
    C           2.83315026           0.37529865          -5.33161050
    C           3.91458730           0.34701997          -6.20625312
    C           5.16133506           0.09276254          -5.71980592
    C           5.40302457          -0.14098713          -4.38194023
    C           0.50553471           0.65882785          -4.94526017
    C           1.56251351           0.63205853          -5.80912456
    C          -1.63191935           0.71351254          -3.19605201
    C          -1.80925391           0.94468703          -4.58002881
    C          -0.74641619           0.91502836          -5.43423020
    C          -2.53754551           0.51855627          -0.98068387
    C          -2.71388222           0.74427359          -2.32646657
    C          -3.98534501           1.00894510          -2.84506203
    C          -4.14301184           1.23686560          -4.23027992
    C          -3.05701758           1.20235428          -5.07991850
    C          -3.63833269           0.55299818          -0.11571891
    C          -4.92441372           0.81543295          -0.60073772
    C          -5.10410350           1.04793925          -1.99239753
    C          -2.16759414           0.06231710           1.72422787
    C          -3.45272554           0.32514023           1.23571259
    C          -1.97400576          -0.16612663           3.06583010
    C          -3.05409118          -0.13903732           3.95705695
    C          -4.35291151           0.12335747           3.48597821
    C          -4.55464241           0.35955726           2.09834902
    C          -0.70630462          -0.42787397           3.56503924
    C          -6.34994554           1.31028391          -2.52677791
    C          -6.47710852           1.53019251          -3.88179058
    C          -5.41422687           1.49921640          -4.73374083
    C          -5.82116817           0.62155893           1.58981248
    C          -6.00087184           0.84408721           0.27768989
    C          -2.83260673          -0.37646050           5.33129094
    C          -3.91457489          -0.34652358           6.20681537
    C          -5.16147119          -0.09026056           5.71938584
    C          -5.40330549           0.14426857           4.38332155
    C          -0.50272955          -0.66294359           4.94470260
    C          -1.56518626          -0.63464572           5.80942349
    C           1.81362828          -0.94924581           4.57865947
    C           0.74143392          -0.91785415           5.43506397
    H           6.65262704          -0.63725427          -2.27239774
    H           6.98083033          -1.04062402           0.12102755
    H           7.19400820          -1.32936571           1.83812255
    H           7.45839848          -1.72936917           4.27178176
    H           5.42081451          -1.66018457           5.80537078
    H           3.14333869          -1.37664755           6.13828477
    H           3.63348469           0.54055598          -7.23426869
    H           5.99587247           0.07090930          -6.39497850
    H           6.39487655          -0.34516311          -3.98340079
    H           1.36281811           0.81578068          -6.85050927
    H          -0.88945160           1.09219659          -6.48738328
    H          -3.14361038           1.37194361          -6.13901552
    H          -7.19198432           1.33163868          -1.83828634
    H          -7.45722129           1.73240357          -4.27077720
    H          -5.42066996           1.65817923          -5.80477996
    H          -6.65175648           0.64121717           2.27290005
    H          -6.97933685           1.04767334          -0.11976126
    H          -3.63354647          -0.54125656           7.23407757
    H          -5.99554712          -0.06838992           6.39528732
    H          -6.39407381           0.34922120           3.98389278
    H          -1.36320805          -0.81838393           6.85002224
    H           0.88904159          -1.09572100           6.48697362
    C           5.53146448           1.96695056           3.43183683
    C           4.61697484           1.74668999           4.45779972
    C           5.07287837           1.67979901           5.75833341
    C           6.42654065           1.82408978           6.11167510
    C           7.35290413           2.07434224           5.08758289
    C           6.85894459           2.13607329           3.84726432
    C           8.98471575           2.55707794           2.58693229
    C          11.56614669           2.76715033           2.94886684
    C          11.30310384           2.84524937           1.40455729
    S          10.07586666           2.58270479           4.02187103
    S           9.55563823           2.68737377           0.89920553
    C           7.69778858           2.08840250           2.56395384
    H           5.30229402           2.01785941           2.36444535
    H           3.57621928           1.62747660           4.15106796
    H           4.34597015           1.50727021           6.54824971
    H           6.77518203           1.75961574           7.14490632
    H           8.44873673           2.14466989           5.34000497
    H          12.51799914           2.84209119           3.36690147
    H          12.07089567           3.02309056           0.70569062
    H           7.57650888           1.17856137           1.96358604
