108
  -184.06296980
    C           3.51541586          -0.37052322          -1.27447499
    C           3.70916509          -0.59204239           0.12247463
    C           2.59549534          -0.52037117           1.00855314
    C           1.30178336          -0.25449652           0.51086138
    C           1.10982734          -0.01976620          -0.88719331
    C           2.21393853          -0.06303623          -1.76567382
    C          -0.19239887           0.23903708          -1.38614741
    C          -0.38249353           0.46946768          -2.77834782
    C           0.72315438           0.43963992          -3.65864159
    C           2.01392301           0.17503290          -3.16072736
    C           4.61502813          -0.45748630          -2.16836557
    C           5.86800919          -0.79449743          -1.64332264
    C           6.05674813          -1.00054617          -0.28931638
    C           5.00279904          -0.89202989           0.62395349
    C           2.77828830          -0.75466598           2.40642195
    C           1.67451258          -0.72986509           3.28154927
    C           0.37927884          -0.46851834           2.77915953
    C           0.18772343          -0.23001156           1.38869176
    C           5.19398423          -1.07905003           2.05443736
    C           4.07325441          -1.02283245           2.91838600
    C          -1.11573387           0.03188058           0.89044156
    C          -1.30721044           0.26830066          -0.50741470
    C           3.11625986           0.13891353          -4.05216701
    C           4.41834100          -0.15746286          -3.57962459
    C           6.45037239          -1.33226101           2.60765946
    C           6.63059910          -1.55765082           3.97263661
    C           5.54976248          -1.52805072           4.81762160
    C           4.25450344          -1.25829116           4.31765404
    C           3.14773808          -1.23024965           5.17479170
    C           2.91607392           0.38759090          -5.44675153
    C           4.02218507           0.35379278          -6.32734414
    C           5.28390644           0.10080783          -5.85055777
    C           5.47583675          -0.14644462          -4.49086049
    C           0.52705440           0.67384081          -5.06462893
    C           1.62634100           0.64441734          -5.92763451
    C          -1.67739947           0.73222945          -3.27961465
    C          -1.86495779           0.96831735          -4.68654681
    C          -0.76205063           0.93345145          -5.54990500
    C          -2.60098417           0.53165750          -1.00515603
    C          -2.78025463           0.76547701          -2.40322098
    C          -4.07547122           1.03261805          -2.91503301
    C          -4.25432348           1.26602782          -4.31517417
    C          -3.14902788           1.22989999          -5.17332337
    C          -3.72366108           0.56697857          -0.12409175
    C          -5.02375148           0.83403129          -0.62901139
    C          -5.20000888           1.07116432          -2.05441605
    C          -2.22121053           0.06377719           1.76675517
    C          -3.53264708           0.33165424           1.27034000
    C          -2.01761349          -0.17333117           3.16089053
    C          -3.12055096          -0.14296203           4.05152230
    C          -4.42828615           0.12066783           3.57506439
    C          -4.64230434           0.36356540           2.15589287
    C          -0.72625370          -0.43831282           3.65905992
    C          -6.45278968           1.33770456          -2.60858239
    C          -6.63041256           1.56587324          -3.97295525
    C          -5.54946971           1.53137368          -4.81749071
    C          -5.91115129           0.63016440           1.62238266
    C          -6.09578878           0.85821597           0.27422481
    C          -2.91616130          -0.38097188           5.44721974
    C          -4.02188886          -0.34925837           6.32853834
    C          -5.28364462          -0.09258579           5.85439248
    C          -5.47948441           0.13900827           4.49305718
    C          -0.52843806          -0.67609490           5.06383886
    C          -1.62731133          -0.64249946           5.92696440
    C           1.86370344          -0.97097231           4.68690750
    C           0.75945121          -0.93858904           5.54940866
    H           6.74107180          -0.82687166          -2.28782833
    H           7.06573349          -1.19030388           0.06136500
    H           7.31449053          -1.36627362           1.96110197
    H           7.62850107          -1.76520209           4.34826407
    H           5.64973447          -1.70824535           5.88195993
    H           3.27195846          -1.41155576           6.23808267
    H           3.83172469           0.53136620          -7.37985401
    H           6.13895117           0.07459637          -6.51993795
    H           6.47780036          -0.34447589          -4.13990332
    H           1.45952018           0.82207851          -6.98596833
    H          -0.90733733           1.11296987          -6.61217425
    H          -3.27331434           1.40544383          -6.23781576
    H          -7.31739752           1.36896678          -1.96247896
    H          -7.62850737           1.76901600          -4.34989577
    H          -5.64855581           1.70367023          -5.88314619
    H          -6.78337952           0.66192150           2.26873458
    H          -7.10434229           1.05925697          -0.07510819
    H          -3.83130076          -0.53396824           7.37954556
    H          -6.13859656          -0.06641498           6.52382299
    H          -6.48080874           0.33875206           4.14164368
    H          -1.46139211          -0.82489453           6.98441800
    H           0.90515457          -1.11792410           6.61125254
    C           5.28357747           2.63891363          -0.98924864
    C           6.32706382           1.87996425          -1.46972422
    C           7.31206523           1.41155813          -0.61232540
    C           7.16231869           1.61999133           0.75344076
    C           6.12962337           2.39480004           1.24313620
    C           5.23295256           3.01374779           0.36636662
    C           3.67818169           4.28219331           1.93142259
    C           3.20006262           4.80688948           4.39189867
    C           2.23343262           5.43462248           3.70233919
    S           4.24091785           3.72390667           3.51444595
    S           2.16565491           5.18990187           1.98978971
    C           4.24189847           4.00570232           0.73047592
    H           4.49141582           2.94803796          -1.66248250
    H           6.42128110           1.67310582          -2.52996331
    H           8.15468714           0.83488142          -0.97056990
    H           7.90249991           1.24208483           1.44303836
    H           6.03424097           2.57952475           2.30389023
    H           3.40688425           4.93407473           5.43978102
    H           1.48549524           6.08816255           4.11262149
    H           3.89838519           4.55095005          -0.15172753
