108
  -183.33212572
    C           3.36057376          -0.31484330          -1.20641915
    C           3.54191190          -0.53822634           0.11639061
    C           2.47868162          -0.50586118           0.94824348
    C           1.24295860          -0.25363595           0.47685979
    C           1.06235441          -0.03118456          -0.84086636
    C           2.11939043          -0.06302017          -1.67436504
    C          -0.17882241           0.21924318          -1.30398742
    C          -0.35909229           0.44092599          -2.61914300
    C           0.69808548           0.40918759          -3.45165544
    C           1.93660354           0.15952192          -2.99260578
    C           4.40489425          -0.33936771          -2.06562975
    C           5.62512407          -0.59351406          -1.55613382
    C           5.80440384          -0.81431744          -0.24787943
    C           4.77253418          -0.79233514           0.61687666
    C           2.65742326          -0.72839915           2.26702301
    C           1.59450232          -0.69498437           3.08923206
    C           0.35875062          -0.44328997           2.61877059
    C           0.17854856          -0.22099430           1.30373668
    C           4.96250164          -1.01799366           1.94447936
    C           3.88807107          -0.98217153           2.75946863
    C          -1.06238251           0.03058989           0.84076571
    C          -1.24298435           0.25304476          -0.47696699
    C           2.98305433           0.13276993          -3.84445596
    C           4.23062713          -0.11625254          -3.39573883
    C           6.17312518          -1.27653687           2.48969649
    C           6.33153623          -1.49714936           3.81172181
    C           5.26217278          -1.46088388           4.61815279
    C           4.04725062          -1.20335508           4.08584987
    C           2.98756368          -1.17087017           4.90958414
    C           2.77959547           0.35834397          -5.16406924
    C           3.80031602           0.34040113          -6.04927347
    C           5.04084672           0.09357906          -5.60717312
    C           5.24374419          -0.13119341          -4.29194600
    C           0.50833573           0.63289165          -4.77248155
    C           1.54383001           0.60765674          -5.62569090
    C          -1.59484078           0.69244867          -3.08958333
    C          -1.76758667           0.91395667          -4.41311892
    C          -0.72010977           0.88423614          -5.25199310
    C          -2.47887189           0.50524358          -0.94828996
    C          -2.65756233           0.72715978          -2.26713913
    C          -3.88816838           0.98172294          -2.75943634
    C          -4.04748127           1.20152229          -4.08607789
    C          -2.98825124           1.16722081          -4.91009685
    C          -3.54177272           0.53877831          -0.11636632
    C          -4.77207375           0.79491991          -0.61652808
    C          -4.96214408           1.01971693          -1.94411846
    C          -2.11946113           0.06260034           1.67431364
    C          -3.36047860           0.31553991           1.20647589
    C          -1.93674414          -0.16056684           2.99238697
    C          -2.98313069          -0.13277711           3.84440094
    C          -4.23026467           0.11859626           3.39602792
    C          -4.40444249           0.34219196           2.06604786
    C          -0.69845809          -0.41165782           3.45125891
    C          -6.17268119           1.27938871          -2.48928045
    C          -6.33142149           1.49824359          -3.81149442
    C          -5.26238379           1.45947929          -4.61831217
    C          -5.62442554           0.59834556           1.55680359
    C          -5.80367526           0.81919746           0.24862497
    C          -2.77977129          -0.35953341           5.16383409
    C          -3.80035286          -0.34054031           6.04917715
    C          -5.04049185          -0.09090641           5.60749923
    C          -5.24319962           0.13519503           4.29254601
    C          -0.50877316          -0.63645026           4.77193599
    C          -1.54438506          -0.61088636           5.62515154
    C           1.76717519          -0.91764749           4.41258799
    C           0.71929388          -0.88871460           5.25132064
    H           6.53642741          -0.63884420          -2.14771508
    H           6.83583996          -1.00746733           0.03728008
    H           7.10178947          -1.32870019           1.92791811
    H           7.32068914          -1.70393391           4.22569523
    H           5.39720559          -1.64007430           5.68543178
    H           3.11816130          -1.34940614           5.97813499
    H           3.64331073           0.52122347          -7.11322266
    H           5.87706544           0.07563126          -6.30920151
    H           6.28389344          -0.32033148          -4.04063999
    H           1.38213275           0.78911750          -6.68945416
    H          -0.86623016           1.06376100          -6.31814178
    H          -3.11888628           1.34461479          -5.97878241
    H          -7.10141728           1.33096578          -1.92751037
    H          -7.32043540           1.70559243          -4.22537661
    H          -5.39758209           1.63715514          -5.68576484
    H          -6.53594221           0.64197093           2.14818670
    H          -6.83488492           1.01398806          -0.03626172
    H          -3.64332075          -0.52148974           7.11309756
    H          -5.87680780          -0.07353598           6.30944984
    H          -6.28340563           0.32375118           4.04114236
    H          -1.38248091          -0.79116478           6.68909386
    H           0.86579802          -1.06670651           6.31770104
    C           3.40477438           3.90436829           3.52908061
    C           3.01058787           3.25164636           2.41576909
    C           3.88531855           2.47933425           1.73640130
    C           5.15042326           2.37943520           2.19620075
    C           5.53000128           3.03844542           3.31277217
    C           4.67266873           3.81198453           4.00724690
    C           6.04493289           4.66556805           5.86943600
    C           8.07573960           4.64103984           6.79633596
    C           7.39202375           5.37069378           7.50179588
    S           7.40167365           4.02660463           5.60447292
    S           5.96148986           5.56885288           7.10521189
    C           4.94905768           4.53162737           5.14388571
    H           2.67783257           4.51336451           4.06394130
    H           1.98682763           3.35458309           2.05857352
    H           3.57941206           1.95653303           0.83244859
    H           5.87359639           1.76900646           1.65749950
    H           6.55934384           2.94634935           3.65379453
    H           8.97487606           4.44394694           6.92831495
    H           7.68674827           5.80444952           8.27349405
    H           5.02024145           5.47815609           4.65785558
