108
  -182.93137753
    C           3.36243828          -0.31503999          -1.20672064
    C           3.54377174          -0.53835418           0.11620786
    C           2.47678020          -0.50523925           0.94686443
    C           1.24425353          -0.25413759           0.47894152
    C           1.06300454          -0.03094139          -0.84328106
    C           2.11783426          -0.06307007          -1.67249886
    C          -0.17875820           0.21914676          -1.30333333
    C          -0.35926060           0.44111457          -2.62031686
    C           0.69946059           0.40852111          -3.44852614
    C           1.93484535           0.16002626          -2.99431959
    C           4.41218775          -0.34125205          -2.06027195
    C           5.64411418          -0.59532591          -1.56258634
    C           5.82431906          -0.81725951          -0.24756654
    C           4.77803640          -0.79197478           0.60951173
    C           2.65622465          -0.72848700           2.26915334
    C           1.59497997          -0.69454100           3.08586289
    C           0.35887284          -0.44348424           2.61991505
    C           0.17841858          -0.22086355           1.30307429
    C           4.97014311          -1.01997367           1.95070854
    C           3.88935346          -0.98218976           2.75858659
    C          -1.06301586           0.03032317           0.84315886
    C          -1.24422781           0.25353816          -0.47907973
    C           2.98447190           0.13247930          -3.84395836
    C           4.23618282          -0.11582752          -3.40407682
    C           6.19154424          -1.27783141           2.48052040
    C           6.34665918          -1.50080400           3.82142580
    C           5.27418271          -1.46539253           4.63674710
    C           4.04731168          -1.20472094           4.09489043
    C           2.98992645          -1.17419576           4.92994507
    C           2.77717136           0.35996980          -5.17268759
    C           3.80681651           0.34264805          -6.07080686
    C           5.05272082           0.09392284          -5.62115959
    C           5.26380698          -0.13457587          -4.28885837
    C           0.50694168           0.63476411          -4.78377724
    C           1.54070748           0.61111832          -5.64595040
    C          -1.59531354           0.69200277          -3.08615195
    C          -1.76920580           0.91585838          -4.42439199
    C          -0.72297660           0.88769291          -5.27248500
    C          -2.47689736           0.50475300          -0.94700772
    C          -2.65631350           0.72729351          -2.26929083
    C          -3.88942297           0.98178068          -2.75850911
    C          -4.04745112           1.20284274          -4.09509874
    C          -2.99076167           1.17060112          -4.93046162
    C          -3.54365850           0.53901766          -0.11612158
    C          -4.77758571           0.79465443          -0.60915018
    C          -4.96964712           1.02175532          -1.95036165
    C          -2.11790658           0.06264024           1.67247854
    C          -3.36235979           0.31578045           1.20681996
    C          -1.93497504          -0.16107700           2.99403933
    C          -2.98463100          -0.13249029           3.84394784
    C          -4.23576605           0.11818180           3.40433220
    C          -4.41169840           0.34405782           2.06070606
    C          -0.69987500          -0.41100768           3.44815952
    C          -6.19109122           1.28070059          -2.48015752
    C          -6.34655242           1.50192723          -3.82120291
    C          -5.27438115           1.46401802          -4.63694216
    C          -5.64344466           0.60013890           1.56321591
    C          -5.82360643           0.82219975           0.24835781
    C          -2.77733227          -0.36118914           5.17246808
    C          -3.80683742          -0.34273937           6.07069327
    C          -5.05237291          -0.09125675           5.62143948
    C          -5.26331099           0.13856049           4.28949723
    C          -0.50728049          -0.63838594           4.78331710
    C          -1.54133541          -0.61428815           5.64539589
    C           1.76896119          -0.91961080           4.42395123
    C           0.72197153          -0.89207138           5.27183031
    H           6.53378848          -0.63836037          -2.14844543
    H           6.83351368          -1.00737013           0.03878968
    H           7.09919635          -1.32813171           1.92651043
    H           7.31850199          -1.70340379           4.22417682
    H           5.39553568          -1.63953286           5.68329646
    H           3.11783979          -1.34904687           5.97580928
    H           3.64229155           0.52098735          -7.11066720
    H           5.87538609           0.07555484          -6.30707835
    H           6.28179698          -0.32035342          -4.03849782
    H           1.38245248           0.78872062          -6.68713923
    H          -0.86591928           1.06337145          -6.31587289
    H          -3.11857170           1.34422137          -5.97647074
    H          -7.09882833           1.33040704          -1.92609900
    H          -7.31825710           1.70503786          -4.22386281
    H          -5.39592239           1.63659022          -5.68363451
    H          -6.53329683           0.64151493           2.14892056
    H          -6.83255505           1.01385812          -0.03777646
    H          -3.64230357          -0.52129343           7.11054658
    H          -5.87512847          -0.07344910           6.30733109
    H          -6.28130120           0.32379259           4.03899999
    H          -1.38280374          -0.79082658           6.68677236
    H           0.86547970          -1.06638926           6.31541376
    C           8.55592392           6.10273537           4.60433492
    C           9.43361121           7.14405025           4.61531755
    C           8.97819247           8.43370705           4.52897731
    C           7.62947407           8.64373854           4.43122440
    C           6.75843979           7.59311863           4.42294504
    C           7.21006807           6.32962115           4.51674084
    C           5.18117155           5.01558691           4.44109011
    C           2.94880414           5.05169006           4.28710423
    C           3.19425654           4.01159772           4.34215073
    S           4.05967813           6.19524902           4.30955327
    S           4.67272452           3.44881807           4.46768629
    C           6.43865155           5.15638901           4.49277735
    H           8.93247418           5.10530481           4.68275033
    H          10.48460967           6.95614284           4.68399398
    H           9.66066902           9.25472148           4.52819078
    H           7.25430576           9.64201935           4.35344737
    H           5.71195607           7.78419273           4.33517292
    H           1.90025677           5.52989608           4.18555468
    H           2.42978177           3.11307762           4.34461796
    H           6.63846536           4.90238391           3.48377567
108
  -182.95462364
    C           3.36094556          -0.31487356          -1.20643189
    C           3.54224289          -0.53817324           0.11640511
    C           2.47834312          -0.50564355           0.94792023
    C           1.24324955          -0.25373999           0.47731951
    C           1.06250322          -0.03113464          -0.84139403
    C           2.11903202          -0.06302935          -1.67395572
    C          -0.17881736           0.21922326          -1.30384669
    C          -0.35912793           0.44096637          -2.61938471
    C           0.69840078           0.40902964          -3.45089607
    C           1.93620848           0.15963249          -2.99297540
    C           4.40630826          -0.33975182          -2.06449394
    C           5.62902170          -0.59387966          -1.55750457
    C           5.80849527          -0.81492902          -0.24776145
    C           4.77355328          -0.79219322           0.61537959
    C           2.65714819          -0.72840038           2.26747025
    C           1.59458910          -0.69489246           3.08840594
    C           0.35877540          -0.44334421           2.61901448
    C           0.17851483          -0.22097425           1.30359240
    C           4.96400461          -1.01836521           1.94579271
    C           3.88830772          -0.98215682           2.75919420
    C          -1.06252301           0.03053003           0.84129264
    C          -1.24325347           0.25315333          -0.47742798
    C           2.98333588           0.13270029          -3.84428106
    C           4.23170706          -0.11615193          -3.39749654
    C           6.17688260          -1.27678917           2.48769587
    C           6.33469408          -1.49793806           3.81376347
    C           5.26458978          -1.46184403           4.62206744
    C           4.04719820          -1.20364298           4.08762749
    C           2.98802944          -1.17158323           4.91380011
    C           2.77906860           0.35866958          -5.16576126
    C           3.80158881           0.34088189          -6.05375221
    C           5.04330921           0.09365492          -5.61009375
    C           5.24790352          -0.13190918          -4.29118904
    C           0.50808168           0.63327334          -4.77481352
    C           1.54313058           0.60837830          -5.62985308
    C          -1.59494382           0.69234087          -3.08875100
    C          -1.76791815           0.91434792          -4.41543557
    C          -0.72071772           0.88495242          -5.25621561
    C          -2.47843165           0.50513816          -0.94801465
    C          -2.65726991           0.72718735          -2.26760529
    C          -3.88840756           0.98172164          -2.75916849
    C          -4.04741253           1.20177508          -4.08786521
    C          -2.98874004           1.16791478          -4.91429634
    C          -3.54213973           0.53882526          -0.11630857
    C          -4.77312335           0.79485170          -0.61499484
    C          -4.96361710           1.02013459          -1.94545582
    C          -2.11910927           0.06260827           1.67390994
    C          -3.36084678           0.31558987           1.20653523
    C          -1.93634284          -0.16068034           2.99274333
    C          -2.98342938          -0.13270564           3.84421712
    C          -4.23131830           0.11849647           3.39776264
    C          -4.40585813           0.34257225           2.06490486
    C          -0.69877953          -0.41150577           3.45049055
    C          -6.17647294           1.27964160          -2.48727869
    C          -6.33457268           1.49901282          -3.81352756
    C          -5.26481203           1.46041855          -4.62221838
    C          -5.62833661           0.59870827           1.55816889
    C          -5.80778611           0.81982399           0.24852644
    C          -2.77922786          -0.35986638           5.16552179
    C          -3.80163240          -0.34101260           6.05367692
    C          -5.04296438          -0.09098275           5.61042368
    C          -5.24737160           0.13591073           4.29179736
    C          -0.50847759          -0.63684605           4.77424747
    C          -1.54372694          -0.61159745           5.62933853
    C           1.76753625          -0.91806484           4.41488744
    C           0.71985781          -0.88942415           5.25556760
    H           6.53582740          -0.63875148          -2.14781418
    H           6.83529332          -1.00744023           0.03755131
    H           7.10119782          -1.32859075           1.92768242
    H           7.32016032          -1.70381284           4.22535376
    H           5.39685562          -1.63994898           5.68489263
    H           3.11808376          -1.34931693           5.97756105
    H           3.64311625           0.52115840          -7.11261566
    H           5.87666443           0.07561420          -6.30872115
    H           6.28338943          -0.32032493          -4.04023418
    H           1.38221136           0.78901937          -6.68889188
    H          -0.86615390           1.06366484          -6.31758720
    H          -3.11881087           1.34451905          -5.97822215
    H          -7.10081921           1.33084960          -1.92727791
    H          -7.31991857           1.70546414          -4.22503933
    H          -5.39723342           1.63702525          -5.68524397
    H          -6.53533571           0.64187698           2.14827867
    H          -6.83433019           1.01394477          -0.03653613
    H          -3.64312776          -0.52143275           7.11248686
    H          -5.87640052          -0.07351944           6.30896637
    H          -6.28289412           0.32374338           4.04073683
    H          -1.38256056          -0.79107786           6.68852815
    H           0.86571972          -1.06662354           6.31713822
    C           0.89352831           7.02412956           0.07026601
    C          -0.42883722           7.22215572           0.27111928
    C          -0.94179332           7.17878068           1.52408102
    C          -0.10306340           6.93383930           2.55807309
    C           1.21923293           6.73821981           2.34199833
    C           1.74471602           6.78242369           1.10302621
    C           4.13278765           6.34802134           1.48066567
    C           5.69543523           5.92884443           3.01577232
    C           6.26347295           5.93777523           1.98008479
    S           4.19592922           6.17697740           3.01543666
    S           5.47768854           6.19988355           0.71146663
    C           3.06695986           6.58703602           0.75762127
    H           1.28148498           7.07331252          -0.94128626
    H          -1.08342129           7.40807307          -0.57396125
    H          -2.00179875           7.32725723           1.69379091
    H          -0.49546750           6.88572530           3.56815511
    H           1.86488900           6.53441425           3.18831034
    H           6.09293723           5.76287332           3.89899843
    H           7.23583310           5.79999152           1.85277830
    H           2.94199843           5.59034565           0.40364389
108
  -183.59291449
    C           3.49391778          -0.61603569          -1.37457751
    C           3.69468838          -0.85318719           0.03354823
    C           2.58779003          -0.63670363           0.97938472
    C           1.23502445          -0.54266560           0.41143390
    C           1.06948984          -0.26062245          -0.97361801
    C           2.18206223          -0.28317296          -1.87948323
    C          -0.21320449           0.15572827          -1.45384788
    C          -0.38485436           0.47381323          -2.84717654
    C           0.74191315           0.47121724          -3.73172666
    C           2.02886158           0.14086587          -3.25220535
    C           4.61636837          -0.49216733          -2.25229373
    C           5.85751303          -0.70237722          -1.61723358
    C           6.04947402          -0.93616296          -0.26188590
    C           4.96503620          -1.01162484           0.63014662
    C           2.77268490          -0.71410831           2.53923531
    C           1.59529471          -0.89983819           3.41647347
    C           0.35522393          -0.60609323           2.85811946
    C           0.23671306          -0.14890108           1.42161483
    C           5.15389560          -1.14876004           2.10948473
    C           4.07456660          -1.14929545           3.04102154
    C          -1.13475794           0.07353356           0.88732546
    C          -1.31454745           0.26286018          -0.52955175
    C           3.14634081           0.17571381          -4.15453100
    C           4.46034344          -0.12767545          -3.68201416
    C           6.44796773          -1.31020337           2.62737722
    C           6.63755872          -1.52518849           4.00070017
    C           5.60402840          -1.57497630           4.91915566
    C           4.26569076          -1.39514358           4.44930577
    C           3.12815459          -1.40585369           5.29958345
    C           2.92839093           0.42795805          -5.56093274
    C           4.01480482           0.37807452          -6.46295918
    C           5.27231700           0.12983344          -5.97863063
    C           5.49994542          -0.10937159          -4.62108999
    C           0.52961936           0.71379660          -5.14938677
    C           1.62701907           0.66045623          -6.02174897
    C          -1.68629310           0.76856664          -3.32973542
    C          -1.88813879           0.99587809          -4.74858991
    C          -0.77776501           0.94523280          -5.60048101
    C          -2.60466732           0.54611063          -1.03854245
    C          -2.79497768           0.78509916          -2.45220055
    C          -4.11536422           1.04173551          -2.95022647
    C          -4.31135593           1.27725528          -4.35388531
    C          -3.19891476           1.23990623          -5.19989752
    C          -3.72364236           0.58522754          -0.14122992
    C          -5.02716359           0.84484666          -0.65495497
    C          -5.23990754           1.07788393          -2.08250323
    C          -2.22771165           0.07111635           1.76592581
    C          -3.54207539           0.33563175           1.26117184
    C          -2.06059427          -0.20067651           3.18980673
    C          -3.15922662          -0.13344181           4.07650231
    C          -4.46473417           0.14222170           3.58987795
    C          -4.64600697           0.37088680           2.15955194
    C          -0.78573012          -0.53686866           3.70649222
    C          -6.50331359           1.34735444          -2.63667642
    C          -6.69589924           1.57948042          -3.99880611
    C          -5.62192096           1.54687310          -4.85477636
    C          -5.89835439           0.63340769           1.61064625
    C          -6.07931717           0.85454007           0.26290657
    C          -2.96908001          -0.35257659           5.48532934
    C          -4.07944788          -0.33668139           6.36614677
    C          -5.32148892          -0.09130338           5.86627465
    C          -5.50756175           0.15034060           4.50251790
    C          -0.59995319          -0.76697031           5.12140345
    C          -1.69839779          -0.62466697           5.97971427
    C           1.80124191          -1.18722553           4.82402073
    C           0.66846100          -1.10192474           5.65655445
    H           6.76116208          -0.61764719          -2.18972174
    H           7.08043280          -1.06385944           0.06617030
    H           7.33031627          -1.15797458           2.01814002
    H           7.64860972          -1.67038818           4.33552647
    H           5.85959435          -1.79960736           5.97021510
    H           3.35710634          -1.40547383           6.35891188
    H           3.93128041           0.52894997          -7.53387472
    H           6.12132900           0.09169160          -6.64354484
    H           6.52986157          -0.31205550          -4.34732988
    H           1.50119560           0.82250243          -7.08799256
    H          -0.95974528           1.11999742          -6.66020696
    H          -3.40722653           1.42580231          -6.25338892
    H          -7.40519259           1.39374935          -2.03358262
    H          -7.70088557           1.78416586          -4.37788757
    H          -5.80076300           1.73133757          -5.91214820
    H          -6.78370670           0.66715952           2.23005278
    H          -7.09900836           1.04894200          -0.03573063
    H          -3.96725737          -0.52724575           7.42581623
    H          -6.17643228          -0.06418875           6.52189165
    H          -6.52404479           0.33024382           4.19510412
    H          -1.58761998          -0.78842949           7.04843513
    H           0.80027473          -1.09216840           6.73760275
    C           5.27506708           3.27242920           2.33375278
    C           5.26210149           4.60991808           2.65566898
    C           4.00792780           5.18737338           2.86935336
    C           2.80951917           4.47124207           2.91384871
    C           2.88709439           3.09573543           2.88771884
    C           4.06653200           2.53804512           2.32656761
    C           2.75121575           0.63890881           1.78007251
    C           1.55698913          -2.94371337           1.22333215
    C           2.60179798          -3.69352621           1.04597293
    S           1.20393126           1.54982029           1.69194695
    S           4.24336274          -3.79546428           0.84458567
    C           3.93437145           1.39418142           1.57328724
    H           6.16373037           2.73283217           2.08794945
    H           6.19224424           5.16663743           2.61433479
    H           4.01454834           6.23781936           3.10488097
    H           1.86791106           4.98741983           3.04573405
    H           2.10488585           2.45567200           3.26609999
    H           0.51472248          -2.81917277           1.40236181
    H           2.23772495          -4.68686304           0.76953110
    H           4.65540007           1.08804863           0.82329965
108
  -183.74190133
    C           3.48982361          -0.59442774          -1.31336120
    C           3.67389451          -0.88468978           0.07548164
    C           2.54513929          -0.87664697           0.95668017
    C           1.24628792          -0.65574441           0.45002343
    C           1.06558199          -0.34734299          -0.94167520
    C           2.18126121          -0.29847473          -1.80491707
    C          -0.22026030           0.03327790          -1.41808490
    C          -0.38906505           0.40214114          -2.78180649
    C           0.72679582           0.41900305          -3.65262873
    C           2.01155517           0.10291205          -3.16766815
    C           4.61311428          -0.46901003          -2.17204711
    C           5.88428625          -0.69256101          -1.62919329
    C           6.06160447          -0.98270836          -0.29321558
    C           4.98239837          -1.04978848           0.60010220
    C           2.75399608          -0.96472450           2.37122790
    C           1.65969356          -0.85625892           3.25223425
    C           0.35267009          -0.63581901           2.74828846
    C           0.14121214          -0.52837807           1.34641855
    C           5.18773020          -1.17756001           2.03446274
    C           4.06669192          -1.11788933           2.89679406
    C          -1.14665743          -0.17077086           0.86124233
    C          -1.33279873           0.09645501          -0.53353869
    C           3.12698896           0.15325674          -4.04767888
    C           4.43123907          -0.12270982          -3.57210061
    C           6.45366092          -1.35121628           2.60102044
    C           6.63074320          -1.54838682           3.97156897
    C           5.55408069          -1.50645978           4.82120969
    C           4.25928839          -1.25224440           4.30751643
    C           3.15481057          -1.19761598           5.16267909
    C           2.92635584           0.41181273          -5.44009322
    C           4.02544528           0.36397097          -6.33188686
    C           5.28606686           0.10678333          -5.85057563
    C           5.48668862          -0.11882701          -4.48868614
    C           0.53608433           0.70523600          -5.04916902
    C           1.63565859           0.65963955          -5.91555374
    C          -1.67612381           0.73859052          -3.27119877
    C          -1.86218450           0.99333080          -4.67377016
    C          -0.75520373           0.95212134          -5.53332511
    C          -2.60257167           0.49161016          -1.01154911
    C          -2.78267971           0.77432737          -2.40062666
    C          -4.08007393           1.05034821          -2.91283868
    C          -4.26015819           1.27349575          -4.31358799
    C          -3.15029751           1.23980644          -5.16391073
    C          -3.71689980           0.57291711          -0.12348430
    C          -5.01278224           0.85103232          -0.63119042
    C          -5.20529598           1.07779066          -2.05376318
    C          -2.22842152          -0.00627269           1.75602853
    C          -3.52648531           0.33247046           1.26910114
    C          -2.02555687          -0.19334881           3.15706019
    C          -3.12389866          -0.12014252           4.05693082
    C          -4.43175422           0.13710372           3.57917096
    C          -4.62934769           0.38473123           2.16078241
    C          -0.73477400          -0.48114512           3.64399416
    C          -6.46075106           1.33591379          -2.61134132
    C          -6.63335964           1.56447558          -3.97690551
    C          -5.55586595           1.53077556          -4.82577039
    C          -5.89546059           0.64010030           1.62220340
    C          -6.08073294           0.86390768           0.27310254
    C          -2.92060876          -0.36761234           5.45070527
    C          -4.02479277          -0.35311859           6.33829098
    C          -5.28608649          -0.09682928           5.85728779
    C          -5.48531015           0.13898086           4.49760501
    C          -0.52843733          -0.65824365           5.05576305
    C          -1.62891727          -0.62133552           5.92263041
    C           1.86551952          -0.96666135           4.67027934
    C           0.76317786          -0.90783604           5.53522635
    H           6.77656104          -0.63187861          -2.24240751
    H           7.08260399          -1.10892896           0.05016404
    H           7.33799652          -1.38819404           1.97920062
    H           7.62581550          -1.75821501           4.35149827
    H           5.68481887          -1.70207023           5.88037509
    H           3.29791556          -1.39306593           6.22089125
    H           3.86684301           0.52271612          -7.39239810
    H           6.13498257           0.06477797          -6.52546416
    H           6.49727278          -0.33628658          -4.16968125
    H           1.48748168           0.80786768          -6.97991755
    H          -0.90502084           1.10265989          -6.59884358
    H          -3.29687316           1.40243002          -6.22682331
    H          -7.34355866           1.37570483          -1.98808039
    H          -7.63035992           1.77094592          -4.35547229
    H          -5.69129483           1.70924913          -5.88680566
    H          -6.77919012           0.65793364           2.24944774
    H          -7.09580789           1.04915561          -0.05751285
    H          -3.87023337          -0.53278394           7.39577430
    H          -6.13768363          -0.06742641           6.52942564
    H          -6.49828665           0.33566795           4.17369765
    H          -1.48335953          -0.81626787           6.98040619
    H           0.90875316          -1.10360544           6.59400574
    C           6.23506695           2.03512306           0.54900130
    C           7.53822825           2.50688738           0.50587851
    C           7.79916960           3.83343617           0.19757378
    C           6.73672105           4.70525906           0.01419882
    C           5.43057735           4.24329314           0.05051595
    C           5.16533863           2.88621405           0.23659472
    C           2.64036277           2.99657087           0.31671484
    C           0.43442816           4.28607233           0.05569625
    C           0.05017875           3.06692038           0.42652699
    S           2.15426465           4.65462469           0.07845840
    S           1.33132696           1.99792389           0.88979329
    C           3.82061074           2.36988554           0.17124184
    H           6.06318386           1.01691625           0.86316365
    H           8.35967910           1.82581412           0.67240161
    H           8.81977660           4.18363236           0.08159033
    H           6.91961845           5.74158417          -0.21905203
    H           4.59227625           4.90858486          -0.08898273
    H          -0.23350792           5.05142787          -0.31655868
    H          -0.94554039           2.63687727           0.36644102
    H           3.75965245           1.28988124           0.11117211
108
  -182.67189333
    C           3.35977993          -0.31474141          -1.20625216
    C           3.54107832          -0.53804115           0.11659252
    C           2.47979748          -0.50600192           0.94883784
    C           1.24233274          -0.25338282           0.47586321
    C           1.06202262          -0.03130919          -0.83971139
    C           2.12017258          -0.06300671          -1.67527439
    C          -0.17884925           0.21928271          -1.30430688
    C          -0.35901198           0.44083521          -2.61859830
    C           0.69739118           0.40953687          -3.45333582
    C           1.93746661           0.15927286          -2.99179437
    C           4.40174912          -0.33853305          -2.06815536
    C           5.61656516          -0.59272698          -1.55310339
    C           5.79538854          -0.81297603          -0.24812379
    C           4.77017532          -0.79242774           0.62030028
    C           2.65803896          -0.72830768           2.26595524
    C           1.59427824          -0.69523730           3.09103851
    C           0.35867995          -0.44321213           2.61823178
    C           0.17861436          -0.22107121           1.30403819
    C           4.95918291          -1.01702473           1.94150390
    C           3.88760157          -0.98217431           2.76000802
    C          -1.06209140           0.03071323           0.83961133
    C          -1.24238646           0.25280337          -0.47595297
    C           2.98243938           0.13292108          -3.84486378
    C           4.22826306          -0.11648268          -3.39189825
    C           6.16479939          -1.27599635           2.49414942
    C           6.32466630          -1.49550229           3.80723802
    C           5.25683231          -1.45885710           4.60961937
    C           4.04736180          -1.20281434           4.08193765
    C           2.98659577          -1.16937743           4.90036132
    C           2.78077780           0.35762296          -5.16036635
    C           3.79749573           0.33935174          -6.03942538
    C           5.03544549           0.09341282          -5.60074342
    C           5.23462333          -0.12961497          -4.29362639
    C           0.50892029           0.63205507          -4.76740876
    C           1.54531740           0.60608143          -5.61653272
    C          -1.59463131           0.69269183          -3.09141594
    C          -1.76685634           0.91310130          -4.40805949
    C          -0.71878802           0.88266733          -5.24271051
    C          -2.47984367           0.50547982          -0.94889975
    C          -2.65819330           0.72710093          -2.26611643
    C          -3.88765946           0.98173082          -2.76002995
    C          -4.04764046           1.20096793          -4.08214978
    C          -2.98715985           1.16569682          -4.90087049
    C          -3.54096355           0.53867760          -0.11649020
    C          -4.76977512           0.79507279          -0.61989793
    C          -4.95890015           1.01880088          -1.94118989
    C          -2.12022759           0.06258139           1.67519078
    C          -3.35967093           0.31543291           1.20634495
    C          -1.93763408          -0.16032116           2.99160897
    C          -2.98246521          -0.13293466           3.84479649
    C          -4.22795463           0.11881627           3.39221983
    C          -4.40133505           0.34135859           2.06855588
    C          -0.69775123          -0.41200792           3.45293957
    C          -6.16437235           1.27883902          -2.49368103
    C          -6.32451673           1.49655688          -3.80702108
    C          -5.25704008           1.45741774          -4.60973867
    C          -5.61584762           0.59755387           1.55380878
    C          -5.79465764           0.81782663           0.24884335
    C          -2.78097376          -0.35880219           5.16012330
    C          -3.79754052          -0.33950756           6.03932948
    C          -5.03507874          -0.09073752           5.60109161
    C          -5.23405276           0.13362707           4.29419261
    C          -0.50944645          -0.63559151           4.76684875
    C          -1.54581286          -0.60933448           5.61599501
    C           1.76631375          -0.91678207           4.40752759
    C           0.71810626          -0.88718831           5.24202604
    H           6.53774746          -0.63906895          -2.14751290
    H           6.83704519          -1.00755356           0.03667200
    H           7.10309232          -1.32896752           1.92843467
    H           7.32179452          -1.70420219           4.22642903
    H           5.39797179          -1.64035120           5.68655299
    H           3.11832509          -1.34961025           5.97935532
    H           3.64373781           0.52135974          -7.11455412
    H           5.87794866           0.07566057          -6.31025820
    H           6.28500488          -0.32035947          -4.04153268
    H           1.38196028           0.78932613          -6.69068314
    H          -0.86639711           1.06396662          -6.31935394
    H          -3.11905211           1.34482149          -5.98001018
    H          -7.10272944           1.33121898          -1.92802178
    H          -7.32156798           1.70587180          -4.22611559
    H          -5.39834872           1.63743809          -5.68690676
    H          -6.53726960           0.64217510           2.14798254
    H          -6.83609887           1.01408054          -0.03565865
    H          -3.64374820          -0.52161359           7.11442426
    H          -5.87769345          -0.07357374           6.31050454
    H          -6.28452562           0.32376628           4.04203213
    H          -1.38230895          -0.79135595           6.69031926
    H           0.86596520          -1.06689270           6.31891178
    C           2.78720779           9.08219195           6.21709767
    C           3.17061325           9.35110870           4.95773968
    C           4.23224221           8.72483510           4.43000404
    C           4.89283856           7.83395374           5.18373061
    C           4.49542602           7.57676305           6.44228768
    C           3.43210157           8.18830471           7.00336844
    C           3.32966919           7.21301559           9.29050594
    C           4.31448778           5.76282112          10.67868712
    C           3.30008301           6.29320105          11.33087220
    S           4.46197208           6.27296066           9.31621835
    S           2.54902080           7.27205233          10.54677001
    C           2.95432185           7.99929728           8.26143955
    H           1.90881793           9.60252039           6.62156647
    H           2.61942692          10.09165302           4.36292531
    H           4.55980416           8.94410938           3.40515300
    H           5.77056436           7.31727932           4.77314343
    H           5.06261107           6.84882478           7.03737219
    H           4.82143797           5.21015934          10.99664196
    H           3.09888047           6.09692943          12.08850510
    H           3.36396163           8.90116891           8.66452247
108
  -182.94534996
    C           3.36200918          -0.31498677          -1.20668531
    C           3.54332425          -0.53831733           0.11632172
    C           2.47688010          -0.50525237           0.94672363
    C           1.24412638          -0.25413457           0.47898653
    C           1.06290617          -0.03093157          -0.84326613
    C           2.11794431          -0.06310986          -1.67235158
    C          -0.17869947           0.21911157          -1.30317022
    C          -0.35926191           0.44112352          -2.62037203
    C           0.69957608           0.40844886          -3.44815367
    C           1.93495143           0.16002372          -2.99440615
    C           4.41154474          -0.34114818          -2.06033901
    C           5.64275401          -0.59512849          -1.56257443
    C           5.82301364          -0.81714003          -0.24713731
    C           4.77746141          -0.79194312           0.60979078
    C           2.65632277          -0.72854741           2.26923158
    C           1.59497781          -0.69451097           3.08540261
    C           0.35891423          -0.44352138           2.62000737
    C           0.17844929          -0.22085414           1.30290347
    C           4.96960093          -1.01989523           1.95057158
    C           3.88909064          -0.98212384           2.75816700
    C          -1.06296904           0.03031139           0.84316824
    C          -1.24417796           0.25353009          -0.47908305
    C           2.98435502           0.13243661          -3.84355396
    C           4.23581049          -0.11581334          -3.40381554
    C           6.19070661          -1.27766853           2.48004212
    C           6.34584897          -1.50067128           3.82114095
    C           5.27359413          -1.46524107           4.63599280
    C           4.04721800          -1.20457030           4.09381062
    C           2.98987057          -1.17413498           4.92910356
    C           2.77744812           0.35977960          -5.17168906
    C           3.80647799           0.34256122          -6.06986668
    C           5.05200475           0.09394596          -5.62059192
    C           5.26321123          -0.13459557          -4.28810914
    C           0.50732601           0.63459518          -4.78301717
    C           1.54074415           0.61098446          -5.64506867
    C          -1.59532689           0.69194894          -3.08577122
    C          -1.76951441           0.91577151          -4.42349708
    C          -0.72279610           0.88757533          -5.27187160
    C          -2.47694484           0.50472729          -0.94678161
    C          -2.65648159           0.72733439          -2.26939523
    C          -3.88913545           0.98168754          -2.75817456
    C          -4.04751067           1.20269237          -4.09401129
    C          -2.99044767           1.17043112          -4.92962310
    C          -3.54321285           0.53896800          -0.11622912
    C          -4.77704735           0.79460458          -0.60935731
    C          -4.96930984           1.02168813          -1.95025951
    C          -2.11801063           0.06268652           1.67226036
    C          -3.36189699           0.31571458           1.20679266
    C          -1.93511088          -0.16108537           2.99421603
    C          -2.98438249          -0.13245925           3.84349008
    C          -4.23548261           0.11816971           3.40411965
    C          -4.41113059           0.34397246           2.06072258
    C          -0.69993582          -0.41094756           3.44774493
    C          -6.19028321           1.28050217          -2.47956692
    C          -6.34572375           1.50175806          -3.82090808
    C          -5.27381238           1.46381458          -4.63614506
    C          -5.64205276           0.59992561           1.56328074
    C          -5.82229112           0.82207481           0.24786912
    C          -2.77766418          -0.36097828           5.17143752
    C          -3.80651579          -0.34266490           6.06980047
    C          -5.05166022          -0.09129029           5.62094418
    C          -5.26265718           0.13859264           4.28867239
    C          -0.50785712          -0.63816693           4.78244900
    C          -1.54124688          -0.61420218           5.64454579
    C           1.76897006          -0.91948371           4.42297003
    C           0.72210942          -0.89205496           5.27119605
    H           6.53367875          -0.63839348          -2.14814413
    H           6.83332200          -1.00730279           0.03852760
    H           7.09906473          -1.32815970           1.92685908
    H           7.31830835          -1.70336366           4.22415004
    H           5.39560690          -1.63948892           5.68302952
    H           3.11781241          -1.34898150           5.97556181
    H           3.64241839           0.52093247          -7.11045107
    H           5.87522009           0.07556251          -6.30700317
    H           6.28157007          -0.32028284          -4.03878856
    H           1.38248728           0.78867664          -6.68689679
    H          -0.86588494           1.06332776          -6.31562063
    H          -3.11854082           1.34418004          -5.97622783
    H          -7.09868101           1.33043584          -1.92645354
    H          -7.31806778           1.70500653          -4.22383678
    H          -5.39598591           1.63656293          -5.68338408
    H          -6.53317624           0.64154371           2.14860619
    H          -6.83235407           1.01379176          -0.03751334
    H          -3.64243419          -0.52122871           7.11031714
    H          -5.87494637          -0.07345997           6.30724414
    H          -6.28106537           0.32371501           4.03929450
    H          -1.38284022          -0.79076407           6.68652901
    H           0.86544530          -1.06631694           6.31516521
    C           7.75347291           6.41676776           6.56822477
    C           7.41253647           6.36864718           7.88333611
    C           6.18610241           6.81681195           8.29843542
    C           5.32255835           7.31078138           7.35793629
    C           5.67036760           7.34956556           6.04142426
    C           6.88153536           6.89633294           5.62841874
    C           6.82473456           7.26315404           3.24188777
    C           5.65076884           8.01031309           1.50868587
    C           6.54619282           7.70308169           1.09288711
    S           5.34362147           7.91295444           3.06671803
    S           7.75222855           7.08336264           1.91044097
    C           7.36115638           6.92187500           4.33804581
    H           8.71097110           6.05112345           6.26507045
    H           8.10762740           5.98661765           8.60252634
    H           5.91502270           6.79107984           9.33119060
    H           4.36256637           7.67409620           7.66359073
    H           4.98245175           7.75112070           5.33149086
    H           4.72287808           8.48433330           0.97074891
    H           6.84584577           7.73199904          -0.06324021
    H           7.99713924           7.75893530           4.44382162
108
  -183.32772401
    C           3.36061036          -0.31482337          -1.20638891
    C           3.54191252          -0.53812960           0.11646739
    C           2.47879331          -0.50574482           0.94818737
    C           1.24296077          -0.25362673           0.47691165
    C           1.06234077          -0.03117202          -0.84091524
    C           2.11938805          -0.06301551          -1.67433998
    C          -0.17879111           0.21923803          -1.30396683
    C          -0.35908888           0.44093362          -2.61917825
    C           0.69810858           0.40917647          -3.45157303
    C           1.93656605           0.15953592          -2.99261968
    C           4.40498799          -0.33938856          -2.06554211
    C           5.62545606          -0.59355218          -1.55622184
    C           5.80474123          -0.81436983          -0.24788331
    C           4.77257305          -0.79225497           0.61680164
    C           2.65739617          -0.72836639           2.26702118
    C           1.59450196          -0.69498360           3.08913946
    C           0.35876121          -0.44330448           2.61880433
    C           0.17857854          -0.22099660           1.30369567
    C           4.96255827          -1.01796437           1.94453273
    C           3.88813129          -0.98215817           2.75938979
    C          -1.06241855           0.03058980           0.84081410
    C          -1.24301758           0.25305843          -0.47700723
    C           2.98310174           0.13276459          -3.84441972
    C           4.23068184          -0.11623790          -3.39584100
    C           6.17342896          -1.27657188           2.48957010
    C           6.33182867          -1.49724267           3.81188498
    C           5.26239062          -1.46099559           4.61851007
    C           4.04720885          -1.20340014           4.08600722
    C           2.98772886          -1.17096501           4.90993839
    C           2.77952670           0.35837937          -5.16421271
    C           3.80043677           0.34044538          -6.04966744
    C           5.04106048           0.09358717          -5.60741189
    C           5.24410541          -0.13124643          -4.29190271
    C           0.50825557           0.63292964          -4.77264509
    C           1.54384260           0.60771317          -5.62606312
    C          -1.59484441           0.69243986          -3.08950879
    C          -1.76764882           0.91398945          -4.41327874
    C          -0.72009681           0.88429060          -5.25236192
    C          -2.47883417           0.50523295          -0.94824522
    C          -2.65755621           0.72716863          -2.26719761
    C          -3.88816384           0.98171779          -2.75940461
    C          -4.04748256           1.20154236          -4.08621824
    C          -2.98828395           1.16727969          -4.91045340
    C          -3.54179170           0.53878289          -0.11637039
    C          -4.77217609           0.79491421          -0.61638959
    C          -4.96228554           1.01975418          -1.94423137
    C          -2.11942948           0.06260789           1.67424748
    C          -3.36050220           0.31554387           1.20648527
    C          -1.93673529          -0.16057457           2.99244182
    C          -2.98312634          -0.13277287           3.84437180
    C          -4.23038841           0.11859115           3.39618153
    C          -4.40457369           0.34222678           2.06594113
    C          -0.69847208          -0.41164635           3.45119032
    C          -6.17298612           1.27940709          -2.48909674
    C          -6.33168168           1.49831015          -3.81167801
    C          -5.26260004           1.45956056          -4.61863769
    C          -5.62473502           0.59837519           1.55693136
    C          -5.80400540           0.81925408           0.24859694
    C          -2.77974383          -0.35956047           5.16397358
    C          -3.80047662          -0.34057562           6.04956237
    C          -5.04068771          -0.09091451           5.60775655
    C          -5.24354589           0.13526162           4.29245791
    C          -0.50881956          -0.63647538           4.77211770
    C          -1.54430101          -0.61094714           5.62551085
    C           1.76709225          -0.91768082           4.41277026
    C           0.71945389          -0.88879153           5.25167218
    H           6.53636899          -0.63883498          -2.14771850
    H           6.83578144          -1.00746219           0.03729450
    H           7.10172616          -1.32869155           1.92790891
    H           7.32061249          -1.70391705           4.22565977
    H           5.39717413          -1.64006081           5.68536413
    H           3.11815067          -1.34940109           5.97807615
    H           3.64329438           0.52121746          -7.11316777
    H           5.87702193           0.07563108          -6.30915642
    H           6.28383897          -0.32032694          -4.04060872
    H           1.38213793           0.78910889          -6.68940638
    H          -0.86622524           1.06375187          -6.31809496
    H          -3.11888036           1.34460489          -5.97873317
    H          -7.10136489           1.33095389          -1.92749439
    H          -7.32038531           1.70557884          -4.22534678
    H          -5.39755324           1.63714205          -5.68571593
    H          -6.53588931           0.64195947           2.14819168
    H          -6.83483537           1.01398075          -0.03628302
    H          -3.64330629          -0.52148757           7.11303822
    H          -5.87676717          -0.07353834           6.30940463
    H          -6.28335833           0.32374583           4.04110926
    H          -1.38248927          -0.79116162           6.68903880
    H           0.86578784          -1.06670384           6.31764674
    C           3.82527865           4.83347826          -1.13926292
    C           4.94154659           4.97721341          -1.88409118
    C           5.98041176           5.70305019          -1.41707736
    C           5.87239830           6.27461522          -0.19867269
    C           4.74855339           6.12108828           0.53553467
    C           3.70205605           5.39873311           0.08977400
    C           2.06352487           5.56615824           1.92255994
    C           1.67540105           6.42110392           3.94843663
    C           0.66939607           5.79907931           3.64901267
    S           2.79279870           6.43260916           2.94400979
    S           0.65201110           5.10922307           2.31750471
    C           2.51219852           5.18426238           0.74217965
    H           3.00580176           4.23571305          -1.53436347
    H           5.00226061           4.51444251          -2.86788337
    H           6.88070740           5.83234996          -2.01389645
    H           6.69488095           6.87138919           0.19179156
    H           4.68694830           6.60161418           1.50970212
    H           1.80789282           6.89856415           4.74034150
    H          -0.09156404           5.70631452           4.18865548
    H           1.94878736           5.88907795           0.17411702
108
  -183.87728300
    C           3.45286165          -0.32338198          -1.23564470
    C           3.63946863          -0.55146945           0.11619548
    C           2.53599415          -0.51800232           0.97998937
    C           1.27168008          -0.25927245           0.48711807
    C           1.08529432          -0.03204344          -0.85929545
    C           2.16705623          -0.06272195          -1.72256481
    C          -0.18576212           0.22755770          -1.35146236
    C          -0.36814430           0.45202334          -2.68587339
    C           0.70478719           0.42497429          -3.56510693
    C           1.97516780           0.16499466          -3.06796452
    C           4.55607992          -0.35674944          -2.09722724
    C           5.82124867          -0.61635261          -1.59071061
    C           6.00153891          -0.83779703          -0.27478215
    C           4.92510135          -0.81111519           0.59979068
    C           2.71605678          -0.74664705           2.32673995
    C           1.63091706          -0.71620734           3.19706301
    C           0.36858415          -0.45419889           2.68473653
    C           0.18340232          -0.22846910           1.35230760
    C           5.11053764          -1.04773457           1.99324456
    C           3.98094208          -1.01560695           2.84674798
    C          -1.08354863           0.03096724           0.85916464
    C          -1.26935746           0.25853983          -0.48789947
    C           3.05228707           0.13915581          -3.95626482
    C           4.35453332          -0.12081973          -3.48659757
    C           6.34817369          -1.30527913           2.52626530
    C           6.47860098          -1.52874208           3.88294618
    C           5.41168736          -1.50400806           4.73226126
    C           4.14761149          -1.24937408           4.22601461
    C           3.04986243          -1.21028657           5.08174185
    C           2.83315026           0.37529865          -5.33161050
    C           3.91458730           0.34701997          -6.20625312
    C           5.16133506           0.09276254          -5.71980592
    C           5.40302457          -0.14098713          -4.38194023
    C           0.50553471           0.65882785          -4.94526017
    C           1.56251351           0.63205853          -5.80912456
    C          -1.63191935           0.71351254          -3.19605201
    C          -1.80925391           0.94468703          -4.58002881
    C          -0.74641619           0.91502836          -5.43423020
    C          -2.53754551           0.51855627          -0.98068387
    C          -2.71388222           0.74427359          -2.32646657
    C          -3.98534501           1.00894510          -2.84506203
    C          -4.14301184           1.23686560          -4.23027992
    C          -3.05701758           1.20235428          -5.07991850
    C          -3.63833269           0.55299818          -0.11571891
    C          -4.92441372           0.81543295          -0.60073772
    C          -5.10410350           1.04793925          -1.99239753
    C          -2.16759414           0.06231710           1.72422787
    C          -3.45272554           0.32514023           1.23571259
    C          -1.97400576          -0.16612663           3.06583010
    C          -3.05409118          -0.13903732           3.95705695
    C          -4.35291151           0.12335747           3.48597821
    C          -4.55464241           0.35955726           2.09834902
    C          -0.70630462          -0.42787397           3.56503924
    C          -6.34994554           1.31028391          -2.52677791
    C          -6.47710852           1.53019251          -3.88179058
    C          -5.41422687           1.49921640          -4.73374083
    C          -5.82116817           0.62155893           1.58981248
    C          -6.00087184           0.84408721           0.27768989
    C          -2.83260673          -0.37646050           5.33129094
    C          -3.91457489          -0.34652358           6.20681537
    C          -5.16147119          -0.09026056           5.71938584
    C          -5.40330549           0.14426857           4.38332155
    C          -0.50272955          -0.66294359           4.94470260
    C          -1.56518626          -0.63464572           5.80942349
    C           1.81362828          -0.94924581           4.57865947
    C           0.74143392          -0.91785415           5.43506397
    H           6.65262704          -0.63725427          -2.27239774
    H           6.98083033          -1.04062402           0.12102755
    H           7.19400820          -1.32936571           1.83812255
    H           7.45839848          -1.72936917           4.27178176
    H           5.42081451          -1.66018457           5.80537078
    H           3.14333869          -1.37664755           6.13828477
    H           3.63348469           0.54055598          -7.23426869
    H           5.99587247           0.07090930          -6.39497850
    H           6.39487655          -0.34516311          -3.98340079
    H           1.36281811           0.81578068          -6.85050927
    H          -0.88945160           1.09219659          -6.48738328
    H          -3.14361038           1.37194361          -6.13901552
    H          -7.19198432           1.33163868          -1.83828634
    H          -7.45722129           1.73240357          -4.27077720
    H          -5.42066996           1.65817923          -5.80477996
    H          -6.65175648           0.64121717           2.27290005
    H          -6.97933685           1.04767334          -0.11976126
    H          -3.63354647          -0.54125656           7.23407757
    H          -5.99554712          -0.06838992           6.39528732
    H          -6.39407381           0.34922120           3.98389278
    H          -1.36320805          -0.81838393           6.85002224
    H           0.88904159          -1.09572100           6.48697362
    C           5.53146448           1.96695056           3.43183683
    C           4.61697484           1.74668999           4.45779972
    C           5.07287837           1.67979901           5.75833341
    C           6.42654065           1.82408978           6.11167510
    C           7.35290413           2.07434224           5.08758289
    C           6.85894459           2.13607329           3.84726432
    C           8.98471575           2.55707794           2.58693229
    C          11.56614669           2.76715033           2.94886684
    C          11.30310384           2.84524937           1.40455729
    S          10.07586666           2.58270479           4.02187103
    S           9.55563823           2.68737377           0.89920553
    C           7.69778858           2.08840250           2.56395384
    H           5.30229402           2.01785941           2.36444535
    H           3.57621928           1.62747660           4.15106796
    H           4.34597015           1.50727021           6.54824971
    H           6.77518203           1.75961574           7.14490632
    H           8.44873673           2.14466989           5.34000497
    H          12.51799914           2.84209119           3.36690147
    H          12.07089567           3.02309056           0.70569062
    H           7.57650888           1.17856137           1.96358604
108
  -184.06296980
    C           3.51541586          -0.37052322          -1.27447499
    C           3.70916509          -0.59204239           0.12247463
    C           2.59549534          -0.52037117           1.00855314
    C           1.30178336          -0.25449652           0.51086138
    C           1.10982734          -0.01976620          -0.88719331
    C           2.21393853          -0.06303623          -1.76567382
    C          -0.19239887           0.23903708          -1.38614741
    C          -0.38249353           0.46946768          -2.77834782
    C           0.72315438           0.43963992          -3.65864159
    C           2.01392301           0.17503290          -3.16072736
    C           4.61502813          -0.45748630          -2.16836557
    C           5.86800919          -0.79449743          -1.64332264
    C           6.05674813          -1.00054617          -0.28931638
    C           5.00279904          -0.89202989           0.62395349
    C           2.77828830          -0.75466598           2.40642195
    C           1.67451258          -0.72986509           3.28154927
    C           0.37927884          -0.46851834           2.77915953
    C           0.18772343          -0.23001156           1.38869176
    C           5.19398423          -1.07905003           2.05443736
    C           4.07325441          -1.02283245           2.91838600
    C          -1.11573387           0.03188058           0.89044156
    C          -1.30721044           0.26830066          -0.50741470
    C           3.11625986           0.13891353          -4.05216701
    C           4.41834100          -0.15746286          -3.57962459
    C           6.45037239          -1.33226101           2.60765946
    C           6.63059910          -1.55765082           3.97263661
    C           5.54976248          -1.52805072           4.81762160
    C           4.25450344          -1.25829116           4.31765404
    C           3.14773808          -1.23024965           5.17479170
    C           2.91607392           0.38759090          -5.44675153
    C           4.02218507           0.35379278          -6.32734414
    C           5.28390644           0.10080783          -5.85055777
    C           5.47583675          -0.14644462          -4.49086049
    C           0.52705440           0.67384081          -5.06462893
    C           1.62634100           0.64441734          -5.92763451
    C          -1.67739947           0.73222945          -3.27961465
    C          -1.86495779           0.96831735          -4.68654681
    C          -0.76205063           0.93345145          -5.54990500
    C          -2.60098417           0.53165750          -1.00515603
    C          -2.78025463           0.76547701          -2.40322098
    C          -4.07547122           1.03261805          -2.91503301
    C          -4.25432348           1.26602782          -4.31517417
    C          -3.14902788           1.22989999          -5.17332337
    C          -3.72366108           0.56697857          -0.12409175
    C          -5.02375148           0.83403129          -0.62901139
    C          -5.20000888           1.07116432          -2.05441605
    C          -2.22121053           0.06377719           1.76675517
    C          -3.53264708           0.33165424           1.27034000
    C          -2.01761349          -0.17333117           3.16089053
    C          -3.12055096          -0.14296203           4.05152230
    C          -4.42828615           0.12066783           3.57506439
    C          -4.64230434           0.36356540           2.15589287
    C          -0.72625370          -0.43831282           3.65905992
    C          -6.45278968           1.33770456          -2.60858239
    C          -6.63041256           1.56587324          -3.97295525
    C          -5.54946971           1.53137368          -4.81749071
    C          -5.91115129           0.63016440           1.62238266
    C          -6.09578878           0.85821597           0.27422481
    C          -2.91616130          -0.38097188           5.44721974
    C          -4.02188886          -0.34925837           6.32853834
    C          -5.28364462          -0.09258579           5.85439248
    C          -5.47948441           0.13900827           4.49305718
    C          -0.52843806          -0.67609490           5.06383886
    C          -1.62731133          -0.64249946           5.92696440
    C           1.86370344          -0.97097231           4.68690750
    C           0.75945121          -0.93858904           5.54940866
    H           6.74107180          -0.82687166          -2.28782833
    H           7.06573349          -1.19030388           0.06136500
    H           7.31449053          -1.36627362           1.96110197
    H           7.62850107          -1.76520209           4.34826407
    H           5.64973447          -1.70824535           5.88195993
    H           3.27195846          -1.41155576           6.23808267
    H           3.83172469           0.53136620          -7.37985401
    H           6.13895117           0.07459637          -6.51993795
    H           6.47780036          -0.34447589          -4.13990332
    H           1.45952018           0.82207851          -6.98596833
    H          -0.90733733           1.11296987          -6.61217425
    H          -3.27331434           1.40544383          -6.23781576
    H          -7.31739752           1.36896678          -1.96247896
    H          -7.62850737           1.76901600          -4.34989577
    H          -5.64855581           1.70367023          -5.88314619
    H          -6.78337952           0.66192150           2.26873458
    H          -7.10434229           1.05925697          -0.07510819
    H          -3.83130076          -0.53396824           7.37954556
    H          -6.13859656          -0.06641498           6.52382299
    H          -6.48080874           0.33875206           4.14164368
    H          -1.46139211          -0.82489453           6.98441800
    H           0.90515457          -1.11792410           6.61125254
    C           5.28357747           2.63891363          -0.98924864
    C           6.32706382           1.87996425          -1.46972422
    C           7.31206523           1.41155813          -0.61232540
    C           7.16231869           1.61999133           0.75344076
    C           6.12962337           2.39480004           1.24313620
    C           5.23295256           3.01374779           0.36636662
    C           3.67818169           4.28219331           1.93142259
    C           3.20006262           4.80688948           4.39189867
    C           2.23343262           5.43462248           3.70233919
    S           4.24091785           3.72390667           3.51444595
    S           2.16565491           5.18990187           1.98978971
    C           4.24189847           4.00570232           0.73047592
    H           4.49141582           2.94803796          -1.66248250
    H           6.42128110           1.67310582          -2.52996331
    H           8.15468714           0.83488142          -0.97056990
    H           7.90249991           1.24208483           1.44303836
    H           6.03424097           2.57952475           2.30389023
    H           3.40688425           4.93407473           5.43978102
    H           1.48549524           6.08816255           4.11262149
    H           3.89838519           4.55095005          -0.15172753
108
  -183.33212572
    C           3.36057376          -0.31484330          -1.20641915
    C           3.54191190          -0.53822634           0.11639061
    C           2.47868162          -0.50586118           0.94824348
    C           1.24295860          -0.25363595           0.47685979
    C           1.06235441          -0.03118456          -0.84086636
    C           2.11939043          -0.06302017          -1.67436504
    C          -0.17882241           0.21924318          -1.30398742
    C          -0.35909229           0.44092599          -2.61914300
    C           0.69808548           0.40918759          -3.45165544
    C           1.93660354           0.15952192          -2.99260578
    C           4.40489425          -0.33936771          -2.06562975
    C           5.62512407          -0.59351406          -1.55613382
    C           5.80440384          -0.81431744          -0.24787943
    C           4.77253418          -0.79233514           0.61687666
    C           2.65742326          -0.72839915           2.26702301
    C           1.59450232          -0.69498437           3.08923206
    C           0.35875062          -0.44328997           2.61877059
    C           0.17854856          -0.22099430           1.30373668
    C           4.96250164          -1.01799366           1.94447936
    C           3.88807107          -0.98217153           2.75946863
    C          -1.06238251           0.03058989           0.84076571
    C          -1.24298435           0.25304476          -0.47696699
    C           2.98305433           0.13276993          -3.84445596
    C           4.23062713          -0.11625254          -3.39573883
    C           6.17312518          -1.27653687           2.48969649
    C           6.33153623          -1.49714936           3.81172181
    C           5.26217278          -1.46088388           4.61815279
    C           4.04725062          -1.20335508           4.08584987
    C           2.98756368          -1.17087017           4.90958414
    C           2.77959547           0.35834397          -5.16406924
    C           3.80031602           0.34040113          -6.04927347
    C           5.04084672           0.09357906          -5.60717312
    C           5.24374419          -0.13119341          -4.29194600
    C           0.50833573           0.63289165          -4.77248155
    C           1.54383001           0.60765674          -5.62569090
    C          -1.59484078           0.69244867          -3.08958333
    C          -1.76758667           0.91395667          -4.41311892
    C          -0.72010977           0.88423614          -5.25199310
    C          -2.47887189           0.50524358          -0.94828996
    C          -2.65756233           0.72715978          -2.26713913
    C          -3.88816838           0.98172294          -2.75943634
    C          -4.04748127           1.20152229          -4.08607789
    C          -2.98825124           1.16722081          -4.91009685
    C          -3.54177272           0.53877831          -0.11636632
    C          -4.77207375           0.79491991          -0.61652808
    C          -4.96214408           1.01971693          -1.94411846
    C          -2.11946113           0.06260034           1.67431364
    C          -3.36047860           0.31553991           1.20647589
    C          -1.93674414          -0.16056684           2.99238697
    C          -2.98313069          -0.13277711           3.84440094
    C          -4.23026467           0.11859626           3.39602792
    C          -4.40444249           0.34219196           2.06604786
    C          -0.69845809          -0.41165782           3.45125891
    C          -6.17268119           1.27938871          -2.48928045
    C          -6.33142149           1.49824359          -3.81149442
    C          -5.26238379           1.45947929          -4.61831217
    C          -5.62442554           0.59834556           1.55680359
    C          -5.80367526           0.81919746           0.24862497
    C          -2.77977129          -0.35953341           5.16383409
    C          -3.80035286          -0.34054031           6.04917715
    C          -5.04049185          -0.09090641           5.60749923
    C          -5.24319962           0.13519503           4.29254601
    C          -0.50877316          -0.63645026           4.77193599
    C          -1.54438506          -0.61088636           5.62515154
    C           1.76717519          -0.91764749           4.41258799
    C           0.71929388          -0.88871460           5.25132064
    H           6.53642741          -0.63884420          -2.14771508
    H           6.83583996          -1.00746733           0.03728008
    H           7.10178947          -1.32870019           1.92791811
    H           7.32068914          -1.70393391           4.22569523
    H           5.39720559          -1.64007430           5.68543178
    H           3.11816130          -1.34940614           5.97813499
    H           3.64331073           0.52122347          -7.11322266
    H           5.87706544           0.07563126          -6.30920151
    H           6.28389344          -0.32033148          -4.04063999
    H           1.38213275           0.78911750          -6.68945416
    H          -0.86623016           1.06376100          -6.31814178
    H          -3.11888628           1.34461479          -5.97878241
    H          -7.10141728           1.33096578          -1.92751037
    H          -7.32043540           1.70559243          -4.22537661
    H          -5.39758209           1.63715514          -5.68576484
    H          -6.53594221           0.64197093           2.14818670
    H          -6.83488492           1.01398806          -0.03626172
    H          -3.64332075          -0.52148974           7.11309756
    H          -5.87680780          -0.07353598           6.30944984
    H          -6.28340563           0.32375118           4.04114236
    H          -1.38248091          -0.79116478           6.68909386
    H           0.86579802          -1.06670651           6.31770104
    C           3.40477438           3.90436829           3.52908061
    C           3.01058787           3.25164636           2.41576909
    C           3.88531855           2.47933425           1.73640130
    C           5.15042326           2.37943520           2.19620075
    C           5.53000128           3.03844542           3.31277217
    C           4.67266873           3.81198453           4.00724690
    C           6.04493289           4.66556805           5.86943600
    C           8.07573960           4.64103984           6.79633596
    C           7.39202375           5.37069378           7.50179588
    S           7.40167365           4.02660463           5.60447292
    S           5.96148986           5.56885288           7.10521189
    C           4.94905768           4.53162737           5.14388571
    H           2.67783257           4.51336451           4.06394130
    H           1.98682763           3.35458309           2.05857352
    H           3.57941206           1.95653303           0.83244859
    H           5.87359639           1.76900646           1.65749950
    H           6.55934384           2.94634935           3.65379453
    H           8.97487606           4.44394694           6.92831495
    H           7.68674827           5.80444952           8.27349405
    H           5.02024145           5.47815609           4.65785558
108
  -184.05796210
    C           3.52748360          -0.32926025          -1.26086989
    C           3.71066764          -0.60260311           0.11701295
    C           2.58058039          -0.65186287           0.98583726
    C           1.29804344          -0.32610474           0.49849497
    C           1.11552815          -0.03217382          -0.88299181
    C           2.21874594          -0.06215131          -1.76078799
    C          -0.18677081           0.24255859          -1.38108329
    C          -0.37828182           0.46996525          -2.76777302
    C           0.72333204           0.43521226          -3.64806015
    C           2.01187446           0.17312513          -3.15029449
    C           4.63696530          -0.35217272          -2.14080613
    C           5.91095409          -0.61911920          -1.61879101
    C           6.09545627          -0.84258335          -0.27302701
    C           5.01280235          -0.83924086           0.61922494
    C           2.74666871          -0.95713224           2.36983019
    C           1.64358519          -0.91821695           3.24659412
    C           0.36747070          -0.56451504           2.75851825
    C           0.18449409          -0.28148478           1.37941531
    C           5.17541935          -1.08595224           2.03726666
    C           4.04922468          -1.12910131           2.88867211
    C          -1.11000273           0.03808535           0.88895530
    C          -1.30108858           0.27454530          -0.50160500
    C           3.11343646           0.14307640          -4.03483886
    C           4.41417487          -0.11502551          -3.55214389
    C           6.43511141          -1.31578309           2.58062022
    C           6.60248122          -1.54934974           3.95134125
    C           5.51793421          -1.51401906           4.79793769
    C           4.22018229          -1.30429875           4.29387516
    C           3.12134488          -1.28905546           5.16183730
    C           2.89516644           0.38108978          -5.42279685
    C           3.99582820           0.35043271          -6.29880313
    C           5.26239963           0.09451029          -5.82332297
    C           5.46975669          -0.13692084          -4.45786118
    C           0.52178936           0.67199498          -5.04745768
    C           1.61061404           0.64150386          -5.91429960
    C          -1.67057443           0.73047330          -3.26962473
    C          -1.85403915           0.96446233          -4.67209256
    C          -0.75962335           0.93298596          -5.54031330
    C          -2.59505026           0.53158967          -1.00117358
    C          -2.77104351           0.76263430          -2.39530531
    C          -4.06329562           1.02852272          -2.90147145
    C          -4.22711943           1.25943931          -4.29811489
    C          -3.12934144           1.22553043          -5.16578250
    C          -3.71587572           0.56444996          -0.11977857
    C          -5.01316001           0.83085032          -0.61937846
    C          -5.17909559           1.06586830          -2.03855692
    C          -2.21533048           0.07091142           1.76389536
    C          -3.52575063           0.33236497           1.26423399
    C          -2.00806461          -0.16226748           3.15307995
    C          -3.11206045          -0.13481863           4.03579045
    C          -4.41291203           0.12246777           3.55358474
    C          -4.63487490           0.36404016           2.14318822
    C          -0.72391231          -0.45312610           3.64647325
    C          -6.43329516           1.33042916          -2.57921367
    C          -6.60108544           1.55828185          -3.95032004
    C          -5.51594339           1.52359788          -4.79701455
    C          -5.90910453           0.62980261           1.62035158
    C          -6.09327574           0.85786674           0.27517405
    C          -2.89560338          -0.37789349           5.42290443
    C          -3.99655095          -0.34922860           6.29860902
    C          -5.26310936          -0.09121277           5.82344062
    C          -5.47002472           0.14183470           4.45864970
    C          -0.52298913          -0.67927799           5.04739957
    C          -1.61054314          -0.63597465           5.91507264
    C           1.83638040          -1.08623136           4.65907287
    C           0.75464812          -0.96502144           5.53679447
    H           6.75877656          -0.64803288          -2.30511950
    H           7.09186822          -1.05209673           0.11847627
    H           7.27195053          -1.33746571           1.89623266
    H           7.59607554          -1.76067683           4.32852180
    H           5.55362606          -1.68012844           5.86908972
    H           3.21579353          -1.39507861           6.24154523
    H           3.74040989           0.54030247          -7.33510364
    H           6.11302243           0.06858735          -6.49351412
    H           6.45465626          -0.34069434          -4.06077184
    H           1.40399436           0.82693113          -6.96711861
    H          -0.90553697           1.11195285          -6.60371527
    H          -3.21426473           1.39678737          -6.23759968
    H          -7.26962526           1.35172533          -1.89430285
    H          -7.59540084           1.76120183          -4.32875907
    H          -5.54974631           1.68680622          -5.86814607
    H          -6.75756111           0.65269436           2.30478011
    H          -7.08931461           1.06358912          -0.11777394
    H          -3.74094201          -0.54081029           7.33463232
    H          -6.11356745          -0.06532717           6.49388582
    H          -6.45471192           0.34648900           4.06150398
    H          -1.40591784          -0.82934344           6.96685135
    H           0.90449401          -1.10267677           6.60587758
    C           4.08260597           3.15190880          -1.68771063
    C           4.84711987           3.74284706          -2.67205984
    C           6.00942418           4.41817355          -2.29739187
    C           6.43615518           4.45145145          -0.96879522
    C           5.67410374           3.83921856           0.00471198
    C           4.44059100           3.27651185          -0.33719502
    C           3.61839042           2.60740088           1.91942863
    C           4.19342374           2.38555889           4.46150531
    C           2.97724847           1.88015210           4.33656504
    S           4.97237525           2.83155004           2.99322987
    S           2.26807292           1.97323338           2.79631894
    C           3.43367823           2.95352203           0.63978865
    H           3.13912909           2.64732047          -1.89074241
    H           4.50066056           3.72710977          -3.70763648
    H           6.59845473           4.91633829          -3.04713779
    H           7.32138225           5.01361992          -0.67746277
    H           5.95624099           3.91796149           1.04915429
    H           4.72850003           2.53911382           5.37446518
    H           2.39120381           1.34666586           5.04944180
    H           2.41787238           2.99733191           0.25949076
108
  -183.16210067
    C           3.36568436          -0.31534175          -1.20777368
    C           3.54714671          -0.53883627           0.11621884
    C           2.47721215          -0.50530088           0.94686159
    C           1.24440883          -0.25419298           0.47898906
    C           1.06314844          -0.03096793          -0.84338162
    C           2.11824224          -0.06310805          -1.67262732
    C          -0.17881855           0.21922922          -1.30371099
    C          -0.35935988           0.44121581          -2.62097796
    C           0.69881698           0.40940860          -3.45387435
    C           1.93534708           0.16007858          -2.99520926
    C           4.42330575          -0.34316663          -2.05843998
    C           5.66084054          -0.59734319          -1.56532347
    C           5.84106651          -0.81929820          -0.25012081
    C           4.78819967          -0.79269296           0.60431101
    C           2.65693155          -0.72871254           2.26986683
    C           1.59577256          -0.69548515           3.09120082
    C           0.35895562          -0.44362279           2.62060532
    C           0.17845789          -0.22091146           1.30346651
    C           4.98098713          -1.02195570           1.95343766
    C           3.89274479          -0.98338726           2.76322991
    C          -1.06313871           0.03032157           0.84326193
    C          -1.24438588           0.25356598          -0.47913101
    C           2.98650051           0.13298714          -3.84944149
    C           4.24582749          -0.11634892          -3.41004250
    C           6.20744783          -1.28013526           2.48062163
    C           6.35762370          -1.50323905           3.82717709
    C           5.28631250          -1.46881501           4.64791583
    C           4.05166608          -1.20715731           4.10687000
    C           2.99278209          -1.17706022           4.94627513
    C           2.77817898           0.36171811          -5.18551484
    C           3.81547075           0.34353068          -6.08525046
    C           5.06167737           0.09394051          -5.63005710
    C           5.27903618          -0.13604676          -4.29386694
    C           0.50540197           0.63668947          -4.79528391
    C           1.53908106           0.61380733          -5.66248155
    C          -1.59612032           0.69289971          -3.09146705
    C          -1.77079233           0.91778726          -4.43588263
    C          -0.72526776           0.89047205          -5.28898521
    C          -2.47733349           0.50480536          -0.94700043
    C          -2.65702583           0.72750015          -2.26998042
    C          -3.89283685           0.98297883          -2.76310802
    C          -4.05185754           1.20525513          -4.10707746
    C          -2.99368217           1.17344187          -4.94678827
    C          -3.54705302           0.53951874          -0.11613450
    C          -4.78772020           0.79540134          -0.60394233
    C          -4.98043506           1.02375631          -1.95306519
    C          -2.11833789           0.06268010           1.67261292
    C          -3.36559419           0.31611810           1.20788949
    C          -1.93546871          -0.16114669           2.99493978
    C          -2.98664811          -0.13300641           3.84939328
    C          -4.24534640           0.11872673           3.41025911
    C          -4.42281142           0.34597441           2.05886907
    C          -0.69920944          -0.41194386           3.45348562
    C          -6.20702752           1.28301165          -2.48027372
    C          -6.35752729           1.50441062          -3.82694901
    C          -5.28655199           1.46748468          -4.64811679
    C          -5.66018902           0.60213960           1.56592721
    C          -5.84036181           0.82430652           0.25093731
    C          -2.77829047          -0.36295820           5.18529588
    C          -3.81546962          -0.34357093           6.08516211
    C          -5.06135227          -0.09128989           5.63033647
    C          -5.27849355           0.13998321           4.29453207
    C          -0.50568257          -0.64034890           4.79476107
    C          -1.53977132          -0.61693806           5.66192266
    C           1.77052290          -0.92157625           4.43540177
    C           0.72419021          -0.89481666           5.28831358
    H           6.53592965          -0.63798099          -2.15319195
    H           6.83684637          -1.00845580           0.04266715
    H           7.10160422          -1.32773790           1.92132482
    H           7.32158272          -1.70395375           4.22467436
    H           5.39469467          -1.64001446           5.68718210
    H           3.11832853          -1.34973618           5.97979996
    H           3.64044426           0.52176327          -7.11413123
    H           5.87818954           0.07534734          -6.30850585
    H           6.28546867          -0.32152875          -4.03429226
    H           1.38185353           0.78939139          -6.69112279
    H          -0.86648527           1.06405638          -6.31998627
    H          -3.11907091           1.34488363          -5.98047958
    H          -7.10120098           1.33002367          -1.92093119
    H          -7.32131799           1.70555502          -4.22436299
    H          -5.39508599           1.63703883          -5.68753301
    H          -6.53542057           0.64117060           2.15366101
    H          -6.83586775           1.01491555          -0.04165429
    H          -3.64046163          -0.52210783           7.11400958
    H          -5.87791842          -0.07322428           6.30875734
    H          -6.28496104           0.32499525           4.03479707
    H          -1.38221512          -0.79154286           6.69074825
    H           0.86602800          -1.06712627           6.31951138
    C           9.99340195           7.00216336           4.62809152
    C          10.79718124           8.07754667           4.87393564
    C          10.24723399           9.32432161           5.08537661
    C           8.87934160           9.46002079           5.04146742
    C           8.07218180           8.38070595           4.79812348
    C           8.62858795           7.16151714           4.60704534
    C           6.68839586           5.75614790           4.24043175
    C           4.38465373           5.76621543           4.11066843
    C           4.76904242           4.53512101           3.88409585
    S           5.49484469           6.92117204           4.39280208
    S           6.33740251           4.13407458           3.89238246
    C           7.97426840           5.95965869           4.29729085
    H          10.42750342           6.04314947           4.47629188
    H          11.85281478           7.95316645           4.89576618
    H          10.87027045          10.16667248           5.26930304
    H           8.43672177          10.41394201           5.19254964
    H           7.02226786           8.50289162           4.75560399
    H           3.33415871           6.08725306           4.10575753
    H           4.04164653           3.70172734           3.70238439
    H           8.14679053           5.94266927           3.25782148
108
  -183.32336229
    C           3.36600145          -0.31534948          -1.20779623
    C           3.54747791          -0.53882746           0.11618586
    C           2.47714734          -0.50526236           0.94689109
    C           1.24444441          -0.25418449           0.47898785
    C           1.06319009          -0.03096620          -0.84337452
    C           2.11818023          -0.06308777          -1.67260343
    C          -0.17879345           0.21924523          -1.30380388
    C          -0.35934112           0.44121060          -2.62095089
    C           0.69901576           0.40944055          -3.45427359
    C           1.93546947           0.16006858          -2.99521904
    C           4.42403759          -0.34327205          -2.05823504
    C           5.66209911          -0.59741313          -1.56544377
    C           5.84232832          -0.81931716          -0.25028343
    C           4.78886356          -0.79264589           0.60394939
    C           2.65706015          -0.72869967           2.26984333
    C           1.59614142          -0.69556750           3.09148115
    C           0.35898652          -0.44360916           2.62056053
    C           0.17853049          -0.22092143           1.30354997
    C           4.98212771          -1.02206458           1.95359049
    C           3.89355418          -0.98349402           2.76343582
    C          -1.06323906           0.03034189           0.84326487
    C          -1.24445293           0.25357540          -0.47910339
    C           2.98710872           0.13297330          -3.84990842
    C           4.24686930          -0.11641826          -3.41051551
    C           6.20945608          -1.28023399           2.48008272
    C           6.35863237          -1.50332781           3.82717102
    C           5.28756436          -1.46907694           4.64868712
    C           4.05272534          -1.20737387           4.10738439
    C           2.99327509          -1.17731152           4.94778789
    C           2.77895543           0.36173222          -5.18638386
    C           3.81636473           0.34356954          -6.08635017
    C           5.06258992           0.09386364          -5.63038570
    C           5.28092477          -0.13628433          -4.29398599
    C           0.50565706           0.63680986          -4.79635133
    C           1.53902233           0.61404563          -5.66398255
    C          -1.59644056           0.69299679          -3.09180205
    C          -1.77142167           0.91801427          -4.43680347
    C          -0.72541646           0.89075441          -5.29071631
    C          -2.47724193           0.50478893          -0.94697499
    C          -2.65717060           0.72752651          -2.27000059
    C          -3.89350259           0.98311993          -2.76339559
    C          -4.05285688           1.20548639          -4.10764676
    C          -2.99392151           1.17369853          -4.94825915
    C          -3.54732513           0.53955155          -0.11607604
    C          -4.78840584           0.79543870          -0.60351286
    C          -4.98164641           1.02395897          -1.95325801
    C          -2.11821456           0.06267935           1.67252368
    C          -3.36588370           0.31615885           1.20792194
    C          -1.93561914          -0.16112845           2.99500237
    C          -2.98724677          -0.13298943           3.84989217
    C          -4.24654731           0.11881103           3.41083669
    C          -4.42354930           0.34611523           2.05863930
    C          -0.69944155          -0.41196740           3.45391352
    C          -6.20883934           1.28321210          -2.47975615
    C          -6.35847420           1.50455992          -3.82702203
    C          -5.28770115           1.46776978          -4.64887733
    C          -5.66134941           0.60228329           1.56613988
    C          -5.84154252           0.82446698           0.25108464
    C          -2.77923331          -0.36293841           5.18613065
    C          -3.81643993          -0.34358079           6.08627540
    C          -5.06224514          -0.09120940           5.63068302
    C          -5.28053772           0.14030639           4.29451627
    C          -0.50619618          -0.64042783           4.79585511
    C          -1.53954749          -0.61718786           5.66348834
    C           1.77105792          -0.92177856           4.43631658
    C           0.72465806          -0.89513073           5.29013753
    H           6.53609702          -0.63794229          -2.15355573
    H           6.83710679          -1.00849784           0.04298024
    H           7.10202614          -1.32767592           1.92079338
    H           7.32180580          -1.70397853           4.22470555
    H           5.39463137          -1.64005363           5.68750000
    H           3.11837478          -1.34981912           5.98027737
    H           3.64029940           0.52182310          -7.11441799
    H           5.87840254           0.07532887          -6.30861797
    H           6.28600801          -0.32166711          -4.03391244
    H           1.38177255           0.78946806          -6.69158275
    H          -0.86656593           1.06415086          -6.32056399
    H          -3.11912051           1.34495569          -5.98094173
    H          -7.10163668           1.33000530          -1.92039714
    H          -7.32156508           1.70559322          -4.22440218
    H          -5.39502950           1.63707444          -5.68784474
    H          -6.53560095           0.64113793           2.15403070
    H          -6.83613939           1.01499374          -0.04195420
    H          -3.64032295          -0.52218220           7.11429570
    H          -5.87814729          -0.07321488           6.30887052
    H          -6.28553419           0.32512858           4.03441492
    H          -1.38213835          -0.79163613           6.69121520
    H           0.86610678          -1.06723411           6.32010450
    C           6.35859751           3.60334216           1.47059152
    C           7.55407494           3.08021054           1.07275433
    C           8.65766032           3.15252033           1.89609328
    C           8.52636943           3.76391270           3.12360069
    C           7.32513644           4.27746625           3.53004611
    C           6.24248071           4.17952736           2.71158202
    C           4.50728481           5.27328185           4.01600301
    C           4.09839399           6.34892453           6.00699112
    C           2.97111557           6.35296964           5.32953187
    S           5.42160045           5.66573783           5.35997700
    S           2.88548876           5.68954269           3.85672697
    C           4.99989707           4.72458777           2.94469287
    H           5.51150738           3.53099543           0.83492211
    H           7.63527832           2.62116983           0.11706297
    H           9.59395881           2.75414740           1.58437015
    H           9.36935641           3.83610838           3.76843549
    H           7.24818932           4.75837589           4.46956435
    H           4.20650879           6.79910729           7.01113612
    H           2.02108650           6.79868903           5.74170177
    H           5.03725219           5.57991971           2.34352256
108
  -184.07250549
    C           3.51136226          -0.40409502          -1.28012669
    C           3.70101249          -0.64947976           0.11357479
    C           2.59201356          -0.55682775           1.00450914
    C           1.30126898          -0.26695463           0.50781687
    C           1.10992342          -0.03024150          -0.88834383
    C           2.21245620          -0.08018497          -1.77073903
    C          -0.19188560           0.23939308          -1.38698433
    C          -0.38175244           0.46940703          -2.77579206
    C           0.72613922           0.44040925          -3.65811230
    C           2.01817570           0.17255871          -3.16188781
    C           4.61761909          -0.45013784          -2.17187907
    C           5.87151190          -0.77594024          -1.64259751
    C           6.05272202          -1.02136863          -0.29674309
    C           4.99527907          -0.94783297           0.61749292
    C           2.78031657          -0.77377059           2.40243668
    C           1.67767766          -0.72924260           3.27994511
    C           0.37986804          -0.46544888           2.77699021
    C           0.18906807          -0.22767053           1.38957210
    C           5.19644614          -1.11649817           2.04733724
    C           4.07794419          -1.04396406           2.91537257
    C          -1.11423878           0.03497208           0.89006492
    C          -1.30585445           0.26973146          -0.50660877
    C           3.12300206           0.14283090          -4.05542882
    C           4.42757620          -0.14497252          -3.58106422
    C           6.45504746          -1.34306564           2.60658290
    C           6.63459593          -1.55217505           3.97384840
    C           5.55698627          -1.52461987           4.82272980
    C           4.26108120          -1.25857989           4.31753759
    C           3.15358408          -1.22582901           5.17141394
    C           2.92128435           0.38818125          -5.45020878
    C           4.02545397           0.35403016          -6.33613797
    C           5.28593526           0.10212509          -5.85579112
    C           5.48157342          -0.13731542          -4.49580448
    C           0.52870175           0.67492916          -5.06245604
    C           1.63103591           0.64310273          -5.92624548
    C          -1.67914770           0.73213938          -3.27865543
    C          -1.86621822           0.96798268          -4.68427511
    C          -0.76112911           0.93295938          -5.54457498
    C          -2.60095220           0.53199678          -1.00702190
    C          -2.78401122           0.76556403          -2.40281524
    C          -4.08135456           1.03356625          -2.91688037
    C          -4.26055025           1.26715333          -4.31680274
    C          -3.15334953           1.23005693          -5.17072737
    C          -3.72173257           0.56631824          -0.12436743
    C          -5.02050768           0.83380568          -0.63214295
    C          -5.20629608           1.07209872          -2.05471531
    C          -2.22042004           0.06375342           1.76856081
    C          -3.53066131           0.33069136           1.26985457
    C          -2.02134669          -0.17357775           3.16156938
    C          -3.12593699          -0.14334969           4.05488946
    C          -4.43457894           0.12106321           3.57735758
    C          -4.63824347           0.36224295           2.15771285
    C          -0.72807883          -0.43775437           3.65849533
    C          -6.45773471           1.33893220          -2.61157615
    C          -6.63351867           1.56680382          -3.97591746
    C          -5.55532002           1.53326159          -4.82412259
    C          -5.90385588           0.62933464           1.62044720
    C          -6.08833555           0.85711171           0.27385253
    C          -2.92189967          -0.38083002           5.45071909
    C          -4.02574926          -0.34978473           6.33675549
    C          -5.28587875          -0.09274736           5.85807382
    C          -5.48364310           0.13904464           4.49737431
    C          -0.53024503          -0.67681813           5.06208829
    C          -1.63238027          -0.64216107           5.92583704
    C           1.86550370          -0.96776752           4.68487691
    C           0.75915179          -0.93788823           5.54411449
    H           6.75457071          -0.78936045          -2.27229035
    H           7.06581675          -1.21242663           0.03966281
    H           7.33522702          -1.36855931           1.97916699
    H           7.63272855          -1.75419826           4.35254196
    H           5.68348705          -1.71177874           5.88281279
    H           3.29293999          -1.41108044           6.23142116
    H           3.86128307           0.52820106          -7.39318856
    H           6.13942567           0.07310278          -6.52736422
    H           6.49267912          -0.33141235          -4.16481800
    H           1.47965401           0.81802455          -6.98638641
    H          -0.90667282           1.11181022          -6.60635524
    H          -3.29323065           1.40766661          -6.23198732
    H          -7.33669160           1.37501053          -1.98279607
    H          -7.63108443           1.77008676          -4.35469708
    H          -5.68144679           1.70906086          -5.88603988
    H          -6.78353884           0.66448571           2.25424760
    H          -7.10063424           1.05667351          -0.06113451
    H          -3.86179631          -0.53119606           7.39256663
    H          -6.13959016          -0.06693935           6.52922881
    H          -6.49402472           0.33707258           4.16707006
    H          -1.48193289          -0.82167247           6.98533981
    H           0.90420676          -1.11744465           6.60581912
    C           7.68903178           1.75327281           0.88334525
    C           6.80138308           1.65293868          -0.16137763
    C           5.45364754           1.93749002           0.02400341
    C           5.04798439           2.44426847           1.24737832
    C           5.94762971           2.63597995           2.27872513
    C           7.27663770           2.21140761           2.14988969
    C           8.33516588           2.98439344           4.30921507
    C           7.90361227           4.29587648           6.47044402
    C           9.20580845           3.99527388           6.50494844
    S           7.03392051           3.91633421           5.00135498
    S           9.87326330           3.18101181           5.11953853
    C           8.27095081           2.22703778           3.20038417
    H           8.72940865           1.49259140           0.71850642
    H           7.12922865           1.26121085          -1.11621468
    H           4.72157417           1.70802919          -0.74168682
    H           3.99712610           2.63176428           1.41509913
    H           5.61731443           3.08712185           3.20312592
    H           7.32342911           4.70029738           7.29047384
    H           9.88578849           4.18089897           7.32447009
    H           9.13332970           1.62588160           2.95615703
108
  -182.34984857
    C           3.36220284          -0.31501176          -1.20664199
    C           3.54352087          -0.53832441           0.11622968
    C           2.47679207          -0.50525763           0.94689856
    C           1.24422219          -0.25413660           0.47892618
    C           1.06298635          -0.03094626          -0.84323399
    C           2.11783542          -0.06306608          -1.67250829
    C          -0.17873924           0.21913892          -1.30331184
    C          -0.35925327           0.44111009          -2.62028583
    C           0.69949289           0.40846583          -3.44818629
    C           1.93483522           0.16002028          -2.99425844
    C           4.41130487          -0.34108168          -2.06046987
    C           5.64265523          -0.59510787          -1.56234347
    C           5.82292376          -0.81698075          -0.24732617
    C           4.77721580          -0.79190064           0.61002554
    C           2.65617731          -0.72850094           2.26911619
    C           1.59490832          -0.69451139           3.08549607
    C           0.35889343          -0.44350171           2.61990294
    C           0.17843511          -0.22087480           1.30306257
    C           4.96925420          -1.01978972           1.95043678
    C           3.88908440          -0.98211915           2.75824891
    C          -1.06300356           0.03032169           0.84313370
    C          -1.24421384           0.25352929          -0.47904164
    C           2.98432809           0.13244813          -3.84358250
    C           4.23542884          -0.11578970          -3.40353873
    C           6.19012444          -1.27761941           2.48060306
    C           6.34565592          -1.50057241           3.82088372
    C           5.27314118          -1.46510509           4.63566602
    C           4.04696704          -1.20453293           4.09385945
    C           2.98972514          -1.17400585           4.92846554
    C           2.77714502           0.35982144          -5.17164282
    C           3.80612305           0.34254932          -6.06946156
    C           5.05190168           0.09392051          -5.62033195
    C           5.26243029          -0.13442198          -4.28851585
    C           0.50707426           0.63460064          -4.78279099
    C           1.54088807           0.61087258          -5.64447809
    C          -1.59525596           0.69194557          -3.08581905
    C          -1.76910408           0.91569795          -4.42339738
    C          -0.72274924           0.88744178          -5.27102081
    C          -2.47689035           0.50475277          -0.94700604
    C          -2.65629929           0.72728611          -2.26925348
    C          -3.88916932           0.98169620          -2.75819529
    C          -4.04715514           1.20265330          -4.09409965
    C          -2.99050951           1.17034614          -4.92899433
    C          -3.54340672           0.53898180          -0.11612917
    C          -4.77678936           0.79460494          -0.60961398
    C          -4.96879691           1.02159077          -1.95009742
    C          -2.11790151           0.06263906           1.67247127
    C          -3.36210945           0.31575130           1.20675484
    C          -1.93495913          -0.16107822           2.99401272
    C          -2.98444278          -0.13245870           3.84354643
    C          -4.23502521           0.11814995           3.40381339
    C          -4.41081366           0.34390027           2.06089535
    C          -0.69988456          -0.41096155           3.44779338
    C          -6.18966934           1.28050764          -2.48024470
    C          -6.34554487           1.50169855          -3.82067511
    C          -5.27335729           1.46370494          -4.63586228
    C          -5.64194817           0.59995944           1.56295159
    C          -5.82210446           0.82200448           0.24814982
    C          -2.77731336          -0.36103117           5.17141219
    C          -3.80615014          -0.34265075           6.06935640
    C          -5.05155017          -0.09125888           5.62064215
    C          -5.26190780           0.13840977           4.28913360
    C          -0.50746681          -0.63820328           4.78226850
    C          -1.54147357          -0.61406761           5.64392343
    C           1.76876960          -0.91944377           4.42287241
    C           0.72184413          -0.89187588           5.27034696
    H           6.53372744          -0.63837515          -2.14811592
    H           6.83336373          -1.00729893           0.03850338
    H           7.09910727          -1.32813776           1.92687675
    H           7.31836496          -1.70337474           4.22417616
    H           5.39563170          -1.63951105           5.68309416
    H           3.11781789          -1.34900149           5.97562002
    H           3.64243597           0.52094246          -7.11049081
    H           5.87524036           0.07557196          -6.30703101
    H           6.28160102          -0.32026964          -4.03881617
    H           1.38248308           0.78868924          -6.68693868
    H          -0.86589071           1.06333906          -6.31566259
    H          -3.11854724           1.34419010          -5.97626785
    H          -7.09872426           1.33044618          -1.92647142
    H          -7.31810294           1.70501709          -4.22386170
    H          -5.39601280           1.63657360          -5.68341914
    H          -6.53322185           0.64155137           2.14859883
    H          -6.83239519           1.01379580          -0.03749199
    H          -3.64244849          -0.52123708           7.11036924
    H          -5.87498023          -0.07346187           6.30728261
    H          -6.28110280           0.32371586           4.03932545
    H          -1.38283544          -0.79077760           6.68657769
    H           0.86544996          -1.06633459           6.31521587
    C           9.80047659           4.18396775           1.63817358
    C           9.97321404           3.26697130           0.64751625
    C           8.93463379           2.46089537           0.26236063
    C           7.73125960           2.60232204           0.89671430
    C           7.56918484           3.52600159           1.88707469
    C           8.58879148           4.32171594           2.25744419
    C           7.62279482           5.67509118           4.01257579
    C           5.80755559           6.13345614           5.22351780
    C           6.52220011           6.78096104           5.59090765
    S           6.10442107           5.08847189           4.05310913
    S           8.01823285           6.87175354           5.06472949
    C           8.57237934           5.29045145           3.27128055
    H          10.62276189           4.80948069           1.91556875
    H          10.92656531           3.16769012           0.17038096
    H           9.06479073           1.73275416          -0.50836151
    H           6.90951227           1.97566175           0.61710576
    H           6.62110512           3.60805057           2.37298376
    H           4.69877956           6.00333158           5.56339776
    H           6.37681773           7.59359328           6.44772558
    H           9.07578347           4.70636330           3.99890539
108
  -183.60688271
    C           3.36566942          -0.31532838          -1.20779387
    C           3.54715658          -0.53881476           0.11622265
    C           2.47728426          -0.50526095           0.94686058
    C           1.24435476          -0.25414723           0.47898506
    C           1.06310182          -0.03094564          -0.84339726
    C           2.11830428          -0.06310802          -1.67264908
    C          -0.17878914           0.21922943          -1.30370766
    C          -0.35934924           0.44121757          -2.62099065
    C           0.69878999           0.40941086          -3.45385822
    C           1.93536980           0.16007559          -2.99520085
    C           4.42326681          -0.34315323          -2.05847631
    C           5.66074297          -0.59734836          -1.56525812
    C           5.84096838          -0.81929212          -0.25014378
    C           4.78818499          -0.79268280           0.60437585
    C           2.65698777          -0.72861908           2.26984964
    C           1.59582148          -0.69536617           3.09122739
    C           0.35897693          -0.44354265           2.62059958
    C           0.17849991          -0.22086738           1.30342311
    C           4.98088842          -1.02188912           1.95338209
    C           3.89286249          -0.98330521           2.76322719
    C          -1.06317901           0.03034946           0.84324368
    C          -1.24438530           0.25357410          -0.47913798
    C           2.98651133           0.13298131          -3.84940874
    C           4.24574800          -0.11635080          -3.40994450
    C           6.20744800          -1.28014635           2.48072722
    C           6.35756732          -1.50317208           3.82717298
    C           5.28636075          -1.46870506           4.64797005
    C           4.05177060          -1.20701211           4.10695736
    C           2.99306238          -1.17690450           4.94636889
    C           2.77818013           0.36171225          -5.18547101
    C           3.81546081           0.34351642          -6.08516092
    C           5.06162435           0.09393467          -5.62998222
    C           5.27892444          -0.13602747          -4.29391697
    C           0.50534518           0.63668544          -4.79520047
    C           1.53919298           0.61377637          -5.66239123
    C          -1.59611307           0.69290013          -3.09147367
    C          -1.77082811           0.91777873          -4.43579250
    C          -0.72516853           0.89044202          -5.28888314
    C          -2.47737698           0.50480912          -0.94697146
    C          -2.65707455           0.72751090          -2.27000165
    C          -3.89278950           0.98297030          -2.76310064
    C          -4.05187611           1.20524686          -4.10700715
    C          -2.99365764           1.17342193          -4.94667742
    C          -3.54701317           0.53951650          -0.11614847
    C          -4.78773758           0.79540557          -0.60396135
    C          -4.98042292           1.02374956          -1.95303691
    C          -2.11836348           0.06270558           1.67256122
    C          -3.36557568           0.31611998           1.20788362
    C          -1.93555039          -0.16111315           2.99496777
    C          -2.98664457          -0.13299792           3.84940954
    C          -4.24542190           0.11874079           3.41024486
    C          -4.42280175           0.34597233           2.05887458
    C          -0.69921424          -0.41188379           3.45354065
    C          -6.20689796           1.28299811          -2.48030448
    C          -6.35744283           1.50439486          -3.82692509
    C          -5.28651312           1.46746371          -4.64801391
    C          -5.66004643           0.60212544           1.56591895
    C          -5.84022835           0.82429713           0.25089380
    C          -2.77842647          -0.36292005           5.18525233
    C          -3.81550291          -0.34354025           6.08506600
    C          -5.06128042          -0.09128491           5.63026531
    C          -5.27846851           0.13999544           4.29447746
    C          -0.50583014          -0.64025886           4.79482184
    C          -1.53972704          -0.61688492           5.66188537
    C           1.77052802          -0.92142429           4.43552951
    C           0.72441559          -0.89467870           5.28836976
    H           6.53592831          -0.63797405          -2.15317038
    H           6.83682993          -1.00843610           0.04265626
    H           7.10159862          -1.32771689           1.92135228
    H           7.32155768          -1.70390836           4.22470193
    H           5.39470244          -1.63987084           5.68727385
    H           3.11837750          -1.34959638           5.97990675
    H           3.64045188           0.52176788          -7.11415236
    H           5.87818589           0.07535299          -6.30851222
    H           6.28546321          -0.32151871          -4.03430811
    H           1.38185057           0.78939662          -6.69114734
    H          -0.86648831           1.06405995          -6.32000797
    H          -3.11907511           1.34488676          -5.98050168
    H          -7.10121477           1.33002544          -1.92094534
    H          -7.32132499           1.70555645          -4.22437223
    H          -5.39510123           1.63704244          -5.68754735
    H          -6.53543223           0.64116829           2.15365233
    H          -6.83587724           1.01491165          -0.04164119
    H          -3.64046754          -0.52211716           7.11403108
    H          -5.87792166          -0.07323112           6.30876820
    H          -6.28497842           0.32498966           4.03480937
    H          -1.38219316          -0.79155211           6.69078188
    H           0.86608704          -1.06708897           6.31957575
    C           5.82977379           1.68962640           7.55810344
    C           5.91928684           1.09131156           8.78120359
    C           4.80248624           0.96974409           9.58062856
    C           3.60394536           1.46357050           9.12169603
    C           3.51259335           2.06086912           7.89292564
    C           4.61690741           2.15921068           7.11473569
    C           3.76600164           3.28697205           5.14432680
    C           1.86761255           4.18942072           4.19552071
    C           2.84246048           4.37958810           3.34237476
    S           2.16724482           3.44572941           5.61019165
    S           4.34450981           3.87418480           3.66584168
    C           4.72859714           2.77713006           5.86207128
    H           6.69557923           1.76941825           6.94523383
    H           6.85723474           0.72324962           9.12127503
    H           4.86942236           0.51127738          10.53840527
    H           2.73353128           1.38808400           9.72685515
    H           2.58593496           2.44702105           7.55869065
    H           0.83567753           4.52233811           4.02550640
    H           2.68336905           4.87057779           2.34835092
    H           5.14930719           3.69405224           6.16865189
108
  -184.09974157
    C           4.24121528          -0.78448518          -1.06235872
    C           4.37434877          -1.04922402           0.33104058
    C           3.24139674          -0.91583219           1.18488870
    C           1.99214093          -0.52345554           0.65929812
    C           1.85793614          -0.26112125          -0.73799555
    C           2.97650061          -0.39277288          -1.58829154
    C           0.60362799           0.15053901          -1.25820887
    C           0.47355003           0.42318228          -2.64601168
    C           1.59751147           0.29443948          -3.49721601
    C           2.84474876          -0.10846689          -2.97976808
    C           5.36786531          -0.89156170          -1.91618326
    C           6.59229967          -1.26402194          -1.35376208
    C           6.72044364          -1.52273052          -0.00656141
    C           5.63220425          -1.42618281           0.86590004
    C           3.37739921          -1.15529456           2.58472120
    C           2.26493887          -0.98931312           3.43406701
    C           1.01330647          -0.58505975           2.90954966
    C           0.87208004          -0.35630097           1.51486697
    C           5.76721192          -1.69231397           2.28696264
    C           4.63320890          -1.54411611           3.12402834
    C          -0.38162375           0.05962611           0.99511944
    C          -0.51921722           0.30662398          -0.40442852
    C           3.97175301          -0.21093775          -3.83869144
    C           5.23713641          -0.59632138          -3.33144937
    C           6.97580115          -2.08768458           2.86433347
    C           7.08935417          -2.33173655           4.23304056
    C           6.00354508          -2.18297841           5.06012154
    C           4.75493786          -1.78524506           4.52770635
    C           3.64133940          -1.61889098           5.35788312
    C           3.83164307           0.09593093          -5.22775779
    C           4.96052801           0.01565960          -6.07661717
    C           6.18086437          -0.35211582          -5.56679796
    C           6.31955782          -0.65470920          -4.21187260
    C           1.46328304           0.58477991          -4.89666853
    C           2.58387544           0.47874068          -5.72980931
    C          -0.77832050           0.82554300          -3.17065737
    C          -0.90649436           1.09147797          -4.57560767
    C           0.21624736           0.97088829          -5.40479721
    C          -1.76443302           0.71442009          -0.92765861
    C          -1.89747589           0.96490367          -2.32548148
    C          -3.15366067           1.35243701          -2.86487666
    C          -3.27625844           1.59195982          -4.26870999
    C          -2.15320253           1.46455493          -5.09299385
    C          -2.88779734           0.88687859          -0.06801339
    C          -4.14136925           1.28078267          -0.59993313
    C          -4.28778373           1.49923108          -2.02787170
    C          -1.48391508           0.25261258           1.85434852
    C          -2.74241310           0.67043281           1.33221857
    C          -1.33557841           0.03411495           3.25592799
    C          -2.43327732           0.25037279           4.13209275
    C          -3.68852594           0.67502788           3.62991053
    C          -3.84482025           0.87199430           2.20009158
    C          -0.09259817          -0.38572223           3.77104679
    C          -5.50640357           1.85364898          -2.61060847
    C          -5.62543183           2.07722366          -3.98229794
    C          -4.53310123           1.95658954          -4.80559134
    C          -5.06547380           1.26234380           1.64067288
    C          -5.21023434           1.45620135           0.28443001
    C          -2.26788463           0.04378657           5.53671271
    C          -3.35696957           0.27960122           6.40786488
    C          -4.56293175           0.70218733           5.90507113
    C          -4.72979345           0.89544902           4.53396561
    C           0.05892374          -0.60496679           5.18175300
    C          -1.03182651          -0.38515801           6.03197987
    C           2.40181150          -1.21761527           4.84484759
    C           1.29706387          -1.02503871           5.68465559
    H           7.47547755          -1.35311052          -1.97349440
    H           7.69858351          -1.80086078           0.36506949
    H           7.86036908          -2.21638071           2.25349821
    H           8.04649188          -2.63897227           4.63833189
    H           6.08581100          -2.36687366           6.12513529
    H           3.74086908          -1.79810110           6.42304951
    H           4.84454524           0.25351389          -7.12765452
    H           7.04868666          -0.40933558          -6.21347396
    H           7.30194009          -0.93798951          -3.85603661
    H           2.48291643           0.70347981          -6.78620354
    H           0.11762486           1.18135765          -6.46449555
    H          -2.24988363           1.65645776          -6.15624977
    H          -6.39529267           1.96172735          -2.00191342
    H          -6.59079115           2.35098842          -4.39185059
    H          -4.61729555           2.13456392          -5.87143431
    H          -5.93186521           1.42010150           2.27054604
    H          -6.18278455           1.75800527          -0.08350302
    H          -3.22148421           0.12501769           7.47203929
    H          -5.39729836           0.88908234           6.57097823
    H          -5.69888818           1.22843603           4.18444691
    H          -0.91318660          -0.54673584           7.09800750
    H           1.40495278          -1.19734753           6.75029478
    C           4.11066622           2.97770319          -2.69955682
    C           5.18294622           2.88886911          -3.56783150
    C           6.43963071           2.53026966          -3.09425563
    C           6.60505167           2.25749354          -1.74248564
    C           5.53536481           2.34952794          -0.86806777
    C           4.26255185           2.71927712          -1.32555214
    C           2.98187037           2.73956159           0.86263527
    C           3.25624045           2.39963754           3.41402332
    C           1.96959460           2.70162052           3.24782037
    S           4.25129949           2.34058969           1.98915533
    S           1.42915222           3.00109735           1.62727395
    C           3.09428366           2.85644580          -0.48121021
    H           3.13344793           3.25528488          -3.08116317
    H           5.03918819           3.09503827          -4.62271785
    H           7.28142763           2.46317178          -3.77327049
    H           7.57927138           1.96751391          -1.36426835
    H           5.69671155           2.12475187           0.17859608
    H           3.73385186           2.18828044           4.35846207
    H           1.23591233           2.77361217           4.03607803
    H           2.18011239           3.11356642          -1.01013024
108
  -184.09836295
    C           3.50335643          -0.50763785          -1.30050842
    C           3.69270642          -0.75428995           0.09004269
    C           2.58454572          -0.65965937           0.98070764
    C           1.29478912          -0.36988205           0.48687963
    C           1.10048086          -0.14891182          -0.91129814
    C           2.20235137          -0.19974268          -1.79156258
    C          -0.20180644           0.12667859          -1.40516497
    C          -0.39275441           0.35546793          -2.79489799
    C           0.71653807           0.32220898          -3.67397530
    C           2.00976768           0.04831758          -3.18349005
    C           4.60575873          -0.57169740          -2.18985571
    C           5.84827344          -0.95100022          -1.67576050
    C           6.02751227          -1.20843482          -0.33304015
    C           4.97768496          -1.09009659           0.58302422
    C           2.77832685          -0.86282347           2.37972941
    C           1.68256396          -0.76443509           3.26082430
    C           0.38412214          -0.49397446           2.76435177
    C           0.18750777          -0.29494437           1.37118474
    C           5.17636788          -1.29940674           2.00615232
    C           4.07017228          -1.16990429           2.88284984
    C          -1.11561963          -0.02519454           0.87642358
    C          -1.31136924           0.18751878          -0.52306472
    C           3.11696953           0.02563327          -4.07257668
    C           4.41991094          -0.26413207          -3.59710289
    C           6.42323498          -1.61506635           2.54719881
    C           6.59810150          -1.81379114           3.91671955
    C           5.53870272          -1.68475091           4.78076813
    C           4.25466142          -1.35924125           4.28751496
    C           3.16146235          -1.23570366           5.15316591
    C           2.91538296           0.30259238          -5.46012942
    C           4.02563677           0.30289823          -6.33653790
    C           5.28343103           0.04041312          -5.85535135
    C           5.48135008          -0.24066636          -4.50384104
    C           0.52009094           0.56965622          -5.07469954
    C           1.62456618           0.56109738          -5.93515252
    C          -1.68958852           0.63362504          -3.29069501
    C          -1.87679398           0.86771676          -4.69506369
    C          -0.77145362           0.82538173          -5.55444278
    C          -2.60320128           0.46764763          -1.01834182
    C          -2.79246957           0.69289657          -2.41492167
    C          -4.08610310           0.98921226          -2.91991735
    C          -4.26220549           1.22634739          -4.31889330
    C          -3.15971283           1.15413339          -5.17795501
    C          -3.71683107           0.53145926          -0.13192594
    C          -5.00991909           0.82480725          -0.63148802
    C          -5.20339837           1.06094159          -2.05121481
    C          -2.21671444           0.02773396           1.75762919
    C          -3.52405387           0.30126605           1.26118399
    C          -2.01836496          -0.18947257           3.15393758
    C          -3.12241018          -0.14754322           4.04667753
    C          -4.42995367           0.11479797           3.56770045
    C          -4.62765360           0.35385021           2.14920666
    C          -0.72120016          -0.43855257           3.64716057
    C          -6.45263982           1.36242169          -2.59512094
    C          -6.61993926           1.60574469          -3.95840874
    C          -5.54840116           1.54190346          -4.81377426
    C          -5.88718150           0.65313879           1.62203467
    C          -6.07232179           0.88399124           0.27591588
    C          -2.90995064          -0.35742576           5.44467236
    C          -4.00969547          -0.29460637           6.33180296
    C          -5.27162855          -0.05048284           5.84924168
    C          -5.48198640           0.14865242           4.48503780
    C          -0.51760926          -0.64686045           5.05333424
    C          -1.61744579          -0.60743107           5.91928998
    C           1.87764715          -0.95612827           4.67040617
    C           0.77630187          -0.88549575           5.53411258
    H           6.70305036          -1.06129673          -2.33109049
    H           7.01492056          -1.49895293           0.00079854
    H           7.28798362          -1.71311379           1.90414187
    H           7.58081865          -2.07189328           4.29312114
    H           5.66611153          -1.84044773           5.84546739
    H           3.30558248          -1.38166131           6.21831267
    H           3.86164249           0.51439530          -7.38698371
    H           6.13606885           0.04707683          -6.52576544
    H           6.49047921          -0.44171446          -4.16719938
    H           1.47425339           0.75717028          -6.99132953
    H          -0.91753323           1.00178570          -6.61536549
    H          -3.29694718           1.33302630          -6.23887145
    H          -7.32566017           1.42107041          -1.95796101
    H          -7.60718438           1.84394253          -4.33693857
    H          -5.66883336           1.73393450          -5.87371019
    H          -6.75249088           0.71281326           2.26927970
    H          -7.07275732           1.11381973          -0.06564626
    H          -3.83456727          -0.43211245           7.39238623
    H          -6.11489169           0.00014467           6.52844448
    H          -6.49280526           0.34154388           4.14943015
    H          -1.46089687          -0.77287864           6.98005291
    H           0.92703726          -1.03405640           6.59858301
    C          -0.12223066           3.77906343           0.84834937
    C          -0.89634947           4.01384925          -0.27394792
    C          -0.38437299           3.77629860          -1.54245811
    C           0.91768442           3.31202664          -1.67492560
    C           1.70671815           3.09324089          -0.55595365
    C           1.20345436           3.31992792           0.73388931
    C           3.25613175           2.80691401           2.12710271
    C           5.74504211           2.12233969           1.92070228
    C           5.52209466           2.19938074           3.23133380
    S           4.41243508           2.48165723           0.86553428
    S           3.92941044           2.66463808           3.73552355
    C           1.95368825           3.13555849           1.95941928
    H          -0.53637583           3.95391470           1.83565474
    H          -1.90525659           4.39910517          -0.16030592
    H          -0.99755548           3.94775676          -2.42200161
    H           1.32831219           3.12250814          -2.66169248
    H           2.71579475           2.72913583          -0.70141951
    H           6.68085191           1.85338503           1.45620278
    H           6.24562359           1.98899581           4.00353834
    H           1.38816110           3.31666763           2.86950231
108
  -184.09052251
    C           3.91405803          -0.47707266          -1.21135236
    C           4.06908458          -0.88986006           0.14355396
    C           2.95465651          -0.83123277           1.02844916
    C           1.69052818          -0.41764105           0.55845381
    C           1.51991070          -0.07521443          -0.81686287
    C           2.63020334          -0.08423988          -1.68668473
    C           0.23315721           0.28115917          -1.29593387
    C           0.05780072           0.60375823          -2.66779644
    C           1.17966999           0.62983133          -3.53177855
    C           2.46321893           0.29760677          -3.05118838
    C           5.02986080          -0.46756740          -2.08527641
    C           6.25369431          -0.92548837          -1.59020271
    C           6.39722912          -1.35155038          -0.28803774
    C           5.32995034          -1.33675064           0.61357097
    C           3.12340046          -1.16745705           2.40476770
    C           2.04025054          -1.02138574           3.29608237
    C           0.77587768          -0.58607881           2.82986658
    C           0.58920001          -0.31768484           1.44750383
    C           5.49036225          -1.73839091           2.00022121
    C           4.38551283          -1.61855710           2.87911173
    C          -0.68783934           0.07988861           0.97606518
    C          -0.87675590           0.33847902          -0.41480648
    C           3.58757031           0.34946202          -3.91912772
    C           4.87930204          -0.00226122          -3.45305070
    C           6.70269616          -2.20946740           2.51342884
    C           6.85102439          -2.54146451           3.86113417
    C           5.79724687          -2.41047485           4.72952519
    C           4.54374458          -1.94536910           4.26184480
    C           3.46363786          -1.77709230           5.13627407
    C           3.41352285           0.77139134          -5.27411384
    C           4.54122101           0.84821383          -6.12707109
    C           5.79014525           0.53447186          -5.65014414
    C           5.96054073           0.11696443          -4.32940984
    C           1.00564814           1.01047976          -4.90559774
    C           2.13147110           1.09174553          -5.73797975
    C          -1.23645857           0.90398797          -3.15930448
    C          -1.41293020           1.20895165          -4.55126472
    C          -0.28576636           1.28254473          -5.38389307
    C          -2.15827774           0.67102123          -0.89996403
    C          -2.34734933           0.91751130          -2.29176694
    C          -3.64760224           1.18350470          -2.79857014
    C          -3.82800664           1.40095680          -4.19939900
    C          -2.70879533           1.43031043          -5.04123846
    C          -3.25735325           0.79221466          -0.00359485
    C          -4.54683534           1.10649530          -0.49920399
    C          -4.76624246           1.23872973          -1.92887802
    C          -1.76280776           0.24538500           1.87463181
    C          -3.04854030           0.62521213           1.39549598
    C          -1.55613405           0.04332170           3.27131226
    C          -2.61903744           0.26421933           4.18839449
    C          -3.90340176           0.65549930           3.73020200
    C          -4.11556751           0.83235282           2.30448515
    C          -0.29515129          -0.38541723           3.73611621
    C          -6.03277841           1.43180912          -2.48151020
    C          -6.21395750           1.60441803          -3.85434570
    C          -5.13341011           1.60688350          -4.70602746
    C          -5.35738936           1.20561456           1.78351084
    C          -5.57011047           1.32110877           0.42684684
    C          -2.39374270           0.07350409           5.58650603
    C          -3.45550080           0.28969201           6.49573132
    C          -4.69931005           0.65338561           6.03342628
    C          -4.92195027           0.83037959           4.66818581
    C          -0.08651945          -0.60740041           5.13950072
    C          -1.13679283          -0.35439789           6.03350354
    C           2.22157220          -1.30207916           4.69251847
    C           1.15910051          -1.07811866           5.58161728
    H           7.12557004          -0.96367335          -2.22983198
    H           7.37565399          -1.69195593           0.02445713
    H           7.56270719          -2.32764145           1.86772780
    H           7.81259054          -2.90050590           4.21475303
    H           5.90752664          -2.65985502           5.77972194
    H           3.59521420          -2.01048985           6.18700772
    H           4.40142486           1.15664369          -7.15732516
    H           6.65761144           0.60504471          -6.29746844
    H           6.96602362          -0.10709442          -3.99586360
    H           2.00720066           1.40705075          -6.76858637
    H          -0.41635165           1.55346426          -6.42670946
    H          -2.84795653           1.63577226          -6.09717218
    H          -6.91249943           1.44177213          -1.84886680
    H          -7.21594321           1.74064191          -4.24336007
    H          -5.26687059           1.76165413          -5.76997053
    H          -6.19004756           1.40990656           2.44302000
    H          -6.55950912           1.60374648           0.09319219
    H          -3.27615074           0.15237127           7.55466914
    H          -5.51718100           0.80180666           6.72786225
    H          -5.92125232           1.10689221           4.35352614
    H          -0.97770863          -0.51089247           7.09521770
    H           1.30457661          -1.26753883           6.64038024
    C           6.39596326           3.76486331           0.90889711
    C           7.63466732           3.41445761           1.40963317
    C           7.77463740           2.29278617           2.21838990
    C           6.64753096           1.54439296           2.53647792
    C           5.39814988           1.91304647           2.06447065
    C           5.24482509           3.02916128           1.23018281
    C           2.74096775           3.25946064           1.17379193
    C           0.66639202           2.77224846           2.64875983
    C           0.20430629           3.47896353           1.61925085
    S           2.36508692           2.39478354           2.64494669
    S           1.33583573           3.95068600           0.39503154
    C           3.97519629           3.46499120           0.66939038
    H           6.29533975           4.64793748           0.28570900
    H           8.49688960           4.03353736           1.18716774
    H           8.75390502           1.99322523           2.57476097
    H           6.75511531           0.66596715           3.16483787
    H           4.53877575           1.30519016           2.32179582
    H           0.07545420           2.40527321           3.47663207
    H          -0.81736145           3.79537145           1.47721614
    H           4.04200317           4.11191911          -0.20452080
108
  -182.60588212
    C           3.36468596          -0.31526261          -1.20736447
    C           3.54607361          -0.53867587           0.11614881
    C           2.47686506          -0.50524710           0.94684007
    C           1.24443334          -0.25420883           0.47912467
    C           1.06315357          -0.03094581          -0.84349877
    C           2.11790680          -0.06308349          -1.67246519
    C          -0.17878029           0.21919927          -1.30357131
    C          -0.35931222           0.44117083          -2.62069401
    C           0.69912596           0.40904916          -3.45175815
    C           1.93501057           0.16007984          -2.99487033
    C           4.41996254          -0.34264702          -2.05861098
    C           5.65665558          -0.59681979          -1.56485676
    C           5.83693347          -0.81885407          -0.24925521
    C           4.78505451          -0.79241623           0.60552586
    C           2.65651064          -0.72860538           2.26966122
    C           1.59552163          -0.69509852           3.08902614
    C           0.35895311          -0.44355866           2.62032622
    C           0.17847434          -0.22089176           1.30332256
    C           4.97771280          -1.02140545           1.95294322
    C           3.89158964          -0.98294778           2.76150641
    C          -1.06316351           0.03030792           0.84339785
    C          -1.24443102           0.25359071          -0.47924270
    C           2.98584966           0.13279636          -3.84749187
    C           4.24290640          -0.11613937          -3.40857698
    C           6.20342268          -1.27948584           2.47989382
    C           6.35506865          -1.50271195           3.82595972
    C           5.28304168          -1.46801640           4.64566047
    C           4.05008760          -1.20634424           4.10344462
    C           2.99207439          -1.17632923           4.94239365
    C           2.77757614           0.36125144          -5.18175462
    C           3.81292754           0.34342291          -6.08203258
    C           5.05955473           0.09395186          -5.62805940
    C           5.27540536          -0.13581175          -4.29191011
    C           0.50576032           0.63617992          -4.79218156
    C           1.53933658           0.61316900          -5.65843302
    C          -1.59586960           0.69255094          -3.08934527
    C          -1.77033033           0.91726489          -4.43279431
    C          -0.72468176           0.88978365          -5.28491800
    C          -2.47696259           0.50474624          -0.94694223
    C          -2.65662316           0.72741290          -2.26978699
    C          -3.89167930           0.98255901          -2.76144705
    C          -4.05026980           1.20451818          -4.10365456
    C          -2.99281053           1.17272817          -4.94282721
    C          -3.54597265           0.53934919          -0.11605711
    C          -4.78460827           0.79511278          -0.60513208
    C          -4.97728028           1.02322041          -1.95259876
    C          -2.11798378           0.06266014           1.67242261
    C          -3.36458333           0.31602513           1.20748418
    C          -1.93513517          -0.16114134           2.99463171
    C          -2.98595793          -0.13280924           3.84742644
    C          -4.24248342           0.11851681           3.40883248
    C          -4.41950368           0.34546492           2.05902347
    C          -0.69950860          -0.41155694           3.45134644
    C          -6.20301744           1.28231914          -2.47949685
    C          -6.35496364           1.50384475          -3.82570871
    C          -5.28325696           1.46665073          -4.64580703
    C          -5.65599615           0.60159820           1.56550316
    C          -5.83623703           0.82382262           0.25004560
    C          -2.77772731          -0.36246840           5.18152591
    C          -3.81296389          -0.34348163           6.08196670
    C          -5.05922517          -0.09130572           5.62838561
    C          -5.27488791           0.13976538           4.29252433
    C          -0.50612899          -0.63977208           4.79163988
    C          -1.53996022          -0.61632088           5.65792368
    C           1.76998922          -0.92094973           4.43228459
    C           0.72379174          -0.89412878           5.28431747
    H           6.53486074          -0.63806382          -2.15151105
    H           6.83536482          -1.00802877           0.04138787
    H           7.10047585          -1.32780550           1.92307405
    H           7.32022728          -1.70367614           4.22434388
    H           5.39483394          -1.63974097           5.68555869
    H           3.11812543          -1.34937431           5.97809322
    H           3.64100911           0.52145906          -7.11261900
    H           5.87699562           0.07541570          -6.30777139
    H           6.28392901          -0.32110224          -4.03560388
    H           1.38211121           0.78910104          -6.68939616
    H          -0.86624294           1.06376292          -6.31822055
    H          -3.11885346           1.34459711          -5.97874112
    H          -7.10008134           1.33010962          -1.92266786
    H          -7.31997529           1.70531043          -4.22402534
    H          -5.39522043           1.63681977          -5.68590185
    H          -6.53435237           0.64125518           2.15197882
    H          -6.83439040           1.01451250          -0.04037413
    H          -3.64102597          -0.52178126           7.11249480
    H          -5.87672133          -0.07329219           6.30802017
    H          -6.28342203           0.32456810           4.03611293
    H          -1.38246257          -0.79121709           6.68903596
    H           0.86581048          -1.06676572           6.31777743
    C           3.11822770           5.58117660           6.75276842
    C           2.55184906           4.38626727           7.08989965
    C           2.89507419           3.23709322           6.41141079
    C           3.81396501           3.32317081           5.39302758
    C           4.38232372           4.52289929           5.05899467
    C           4.04531459           5.63737247           5.74091491
    C           5.38114975           7.34148832           4.66133323
    C           6.91231986           7.73700825           3.01099895
    C           6.68623329           8.82526848           3.52806903
    S           6.15920918           6.39711379           3.52876859
    S           5.65190816           9.00439068           4.75145630
    C           4.49132301           6.95151029           5.50999432
    H           2.85108028           6.45841635           7.29191057
    H           1.83653662           4.34258786           7.87627913
    H           2.45057523           2.30453498           6.66473387
    H           4.08528165           2.44940726           4.85094505
    H           5.08037563           4.57158104           4.26339942
    H           7.61687334           7.56007366           2.14974887
    H           7.20472676           9.80326642           3.21062103
    H           3.65084135           7.30217798           4.97715922
108
  -182.96203561
    C           3.36221036          -0.31502369          -1.20664130
    C           3.54351396          -0.53833144           0.11622231
    C           2.47680935          -0.50527156           0.94691702
    C           1.24420134          -0.25413774           0.47893179
    C           1.06297781          -0.03094736          -0.84323132
    C           2.11783669          -0.06306899          -1.67252130
    C          -0.17872100           0.21913753          -1.30332078
    C          -0.35924628           0.44110795          -2.62027920
    C           0.69949113           0.40846626          -3.44819104
    C           1.93482921           0.16001686          -2.99423957
    C           4.41126251          -0.34108372          -2.06047517
    C           5.64261907          -0.59516715          -1.56228461
    C           5.82279545          -0.81708723          -0.24738318
    C           4.77721573          -0.79193727           0.61000466
    C           2.65616511          -0.72850694           2.26910758
    C           1.59491660          -0.69451610           3.08548921
    C           0.35890323          -0.44350412           2.61990163
    C           0.17846427          -0.22088014           1.30306379
    C           4.96917967          -1.01981165           1.95043022
    C           3.88909833          -0.98213660           2.75824126
    C          -1.06302956           0.03032471           0.84313631
    C          -1.24422902           0.25352991          -0.47903259
    C           2.98434102           0.13244578          -3.84359334
    C           4.23540806          -0.11579502          -3.40352485
    C           6.19006345          -1.27767335           2.48064407
    C           6.34562358          -1.50060465           3.82088682
    C           5.27312424          -1.46512139           4.63563240
    C           4.04693501          -1.20453516           4.09385752
    C           2.98977716          -1.17401933           4.92841414
    C           2.77713709           0.35982288          -5.17164246
    C           3.80611519           0.34254601          -6.06944540
    C           5.05188862           0.09391687          -5.62031539
    C           5.26241502          -0.13442580          -4.28853048
    C           0.50704466           0.63460656          -4.78279659
    C           1.54090007           0.61086691          -5.64446185
    C          -1.59526244           0.69194812          -3.08583168
    C          -1.76914815           0.91570481          -4.42339450
    C          -0.72269981           0.88743171          -5.27100757
    C          -2.47688031           0.50475027          -0.94699812
    C          -2.65630754           0.72728877          -2.26926242
    C          -3.88915325           0.98169699          -2.75821461
    C          -4.04716936           1.20265432          -4.09408748
    C          -2.99045752           1.17033540          -4.92897888
    C          -3.54340036           0.53898019          -0.11612382
    C          -4.77680005           0.79460542          -0.60960329
    C          -4.96883062           1.02159789          -1.95010927
    C          -2.11788770           0.06264006           1.67245190
    C          -3.36210674           0.31575148           1.20675191
    C          -1.93497271          -0.16107884           2.99403090
    C          -2.98440651          -0.13246567           3.84355985
    C          -4.23507339           0.11815304           3.40384326
    C          -4.41082310           0.34390413           2.06088241
    C          -0.69987288          -0.41096594           3.44780499
    C          -6.18964213           1.28050103          -2.48023034
    C          -6.34552470           1.50169537          -3.82067675
    C          -5.27334417           1.46369898          -4.63583888
    C          -5.64192184           0.59995283           1.56296314
    C          -5.82208592           0.82200372           0.24812910
    C          -2.77733344          -0.36102662           5.17140892
    C          -3.80615311          -0.34264457           6.06931600
    C          -5.05151786          -0.09126304           5.62063715
    C          -5.26188351           0.13841198           4.28909300
    C          -0.50753885          -0.63819310           4.78228219
    C          -1.54140755          -0.61407108           5.64387067
    C           1.76870051          -0.91943421           4.42288196
    C           0.72193427          -0.89188458           5.27028739
    H           6.53371977          -0.63838720          -2.14812855
    H           6.83336170          -1.00729110           0.03850391
    H           7.09910565          -1.32815876           1.92688382
    H           7.31836890          -1.70337339           4.22418339
    H           5.39563345          -1.63950471           5.68310680
    H           3.11781963          -1.34899538           5.97563430
    H           3.64243395           0.52094578          -7.11049825
    H           5.87524714           0.07557371          -6.30703687
    H           6.28160058          -0.32026952          -4.03881982
    H           1.38248172           0.78869225          -6.68694340
    H          -0.86589179           1.06334166          -6.31566597
    H          -3.11854799           1.34419235          -5.97627180
    H          -7.09873209           1.33044782          -1.92646771
    H          -7.31811351           1.70502000          -4.22386475
    H          -5.39601369           1.63657585          -5.68342601
    H          -6.53323156           0.64155310           2.14860396
    H          -6.83240431           1.01379855          -0.03749386
    H          -3.64244513          -0.52123963           7.11038565
    H          -5.87499511          -0.07346098           6.30729267
    H          -6.28111206           0.32371811           4.03932513
    H          -1.38283369          -0.79077778           6.68659123
    H           0.86545121          -1.06633165           6.31522993
    C           6.53368960           8.54895427           5.61921362
    C           7.33050040           8.41325003           4.52399341
    C           8.47078889           7.65712885           4.58780297
    C           8.78326990           7.04912253           5.77248482
    C           7.97632475           7.19078015           6.86301053
    C           6.85311277           7.92735724           6.79461179
    C           5.94017836           7.74888216           9.02658625
    C           6.18121144           6.89738921          11.07298285
    C           5.30919886           7.44589794          11.13285227
    S           7.05194998           6.79587292           9.73861611
    S           4.67061589           8.26529083           9.93069690
    C           5.94899444           8.17937518           7.83761913
    H           5.64277431           9.13630779           5.54328051
    H           7.07078902           8.90524758           3.60910100
    H           9.10581502           7.55301225           3.73516905
    H           9.67477172           6.46162527           5.84595483
    H           8.24983262           6.71332871           7.77891366
    H           6.71317907           6.28192875          11.90977920
    H           4.60059912           7.56027295          12.08159011
    H           6.29451361           9.15741017           8.05710396
108
  -184.08478051
    C           3.59067354          -0.51298925          -1.66928041
    C           3.85235718          -0.70883232          -0.28272948
    C           2.78946546          -0.58810882           0.65873778
    C           1.47762435          -0.30359449           0.22337445
    C           1.21484826          -0.11326683          -1.16733904
    C           2.26919605          -0.20241971          -2.10117310
    C          -0.10787951           0.16138470          -1.60114028
    C          -0.36680290           0.36101925          -2.98351784
    C           0.69739417           0.29955118          -3.91582378
    C           2.00902260           0.01315094          -3.48696762
    C           4.63994264          -0.63608006          -2.61439296
    C           5.90871990          -0.99335364          -2.15006632
    C           6.16331177          -1.18023218          -0.80916026
    C           5.16293170          -1.02624600           0.15551524
    C           3.05149542          -0.76245670           2.05002042
    C           1.99919414          -0.64450169           2.98048553
    C           0.67971273          -0.37316135           2.54408482
    C           0.41475717          -0.20490083           1.15876448
    C           5.43508806          -1.18706273           1.57265470
    C           4.36943158          -1.04952813           2.49724618
    C          -0.91017896           0.05858153           0.72398518
    C          -1.17466122           0.23692499          -0.66805117
    C           3.06748609          -0.06284694          -4.43248938
    C           4.38286915          -0.39240718          -4.02200766
    C           6.71318377          -1.46387400           2.06235215
    C           6.95813477          -1.61006480           3.42775117
    C           5.93675844          -1.48425563           4.33708947
    C           4.62272982          -1.20305864           3.89551112
    C           3.56952529          -1.07506131           4.80806336
    C           2.79885036           0.18440915          -5.81473540
    C           3.85790552           0.11593457          -6.75125295
    C           5.12548325          -0.20784288          -6.33646401
    C           5.38694443          -0.46622555          -4.99020300
    C           0.43397007           0.52482565          -5.30899094
    C           1.49387272           0.47632884          -6.22424288
    C          -1.68820354           0.61917829          -3.42160958
    C          -1.94381397           0.82312436          -4.81942080
    C          -0.87767532           0.78100409          -5.72839949
    C          -2.49211849           0.48728383          -1.10716572
    C          -2.75135920           0.67393534          -2.49752705
    C          -4.07632523           0.91628847          -2.94994553
    C          -4.32225482           1.10700044          -4.34497196
    C          -3.25498937           1.06173726          -5.24890382
    C          -3.56439650           0.55558395          -0.17105093
    C          -4.88953672           0.78794750          -0.61831517
    C          -5.15682401           0.96953708          -2.03401120
    C          -1.96524434           0.14541764           1.65737960
    C          -3.29865418           0.39059451           1.21893075
    C          -1.69484000          -0.01618271           3.04869360
    C          -2.74907988           0.08066101           3.99678815
    C          -4.08091530           0.32391203           3.57759243
    C          -4.35711520           0.46795972           2.15924277
    C          -0.37720695          -0.26908883           3.48068882
    C          -6.44163573           1.20075350          -2.52961949
    C          -6.67948040           1.38240475          -3.89196859
    C          -5.64352559           1.34106362          -4.79238139
    C          -5.65281839           0.68409756           1.68041103
    C          -5.91073149           0.83735692           0.33552973
    C          -2.46237310          -0.06695649           5.38935290
    C          -3.51261456           0.03979462           6.33092281
    C          -4.79602451           0.28347299           5.90780918
    C          -5.07935907           0.42265038           4.54915497
    C          -0.10100622          -0.42482785           4.88085059
    C          -1.14910279          -0.31511683           5.80327300
    C           2.26332075          -0.80371658           4.38255465
    C           1.21041753          -0.68508245           5.29972052
    H           6.72723303          -1.12859074          -2.84438802
    H           7.17075412          -1.45239240          -0.51942996
    H           7.55034900          -1.56909783           1.38358237
    H           7.96582724          -1.82485108           3.76431013
    H           6.12133808          -1.59715618           5.39918914
    H           3.76780342          -1.19246281           5.86807149
    H           3.64849031           0.31321018          -7.79626364
    H           5.93781587          -0.26628028          -7.05177780
    H           6.39938303          -0.73076118          -4.71414519
    H           1.29481358           0.65820657          -7.27499842
    H          -1.07430332           0.94444426          -6.78270894
    H          -3.44748517           1.21219594          -6.30582196
    H          -7.28971802           1.24523520          -1.85791627
    H          -7.69319780           1.55834306          -4.23280681
    H          -5.82157860           1.48555120          -5.85173443
    H          -6.48934313           0.73568572           2.36598412
    H          -6.93703651           1.00203854           0.03235135
    H          -3.28685102          -0.07252761           7.38507347
    H          -5.60166390           0.36991429           6.62778802
    H          -6.10622059           0.61425402           4.26419041
    H          -0.93763497          -0.42688482           6.86135185
    H           1.41470709          -0.80185222           6.35879431
    C           9.54160578          -1.30159735          -2.35470678
    C           9.75679410          -2.61548795          -2.72877463
    C           9.59889311          -3.00128842          -4.05489925
    C           9.24053353          -2.05292495          -5.00388714
    C           9.01749726          -0.73640552          -4.63433233
    C           9.14590501          -0.33415090          -3.29593337
    C           8.24804831           2.02428379          -3.44784746
    C           6.90699254           3.59196270          -5.00947452
    C           7.12562847           4.31057696          -3.90884531
    S           7.54580018           1.97566995          -5.04343925
    S           8.01451368           3.55213315          -2.62977324
    C           8.88940479           1.01072268          -2.82087132
    H           9.67066397          -1.01002806          -1.31747627
    H          10.05058173          -3.34599055          -1.98317891
    H           9.76524009          -4.03114555          -4.34773216
    H           9.13661447          -2.33934420          -6.04476427
    H           8.77563202          -0.01106255          -5.40111791
    H           6.37453478           3.93107456          -5.88459199
    H           6.79682691           5.32621948          -3.75016757
    H           9.21904356           1.20887823          -1.80460291
108
  -183.64127140
    C           3.36925261          -0.31560738          -1.20913043
    C           3.55095099          -0.53933559           0.11646677
    C           2.47844529          -0.50544578           0.94712213
    C           1.24423474          -0.25412694           0.47877800
    C           1.06307919          -0.03100054          -0.84311709
    C           2.11933348          -0.06316420          -1.67318590
    C          -0.17876029           0.21931525          -1.30417472
    C          -0.35950084           0.44140462          -2.62215093
    C           0.69780104           0.41058255          -3.46077896
    C           1.93629358           0.16011801          -2.99639144
    C           4.43426256          -0.34483910          -2.05784170
    C           5.67552989          -0.59920292          -1.56701466
    C           5.85563353          -0.82092108          -0.25297100
    C           4.79858090          -0.79350132           0.60041321
    C           2.65817916          -0.72894019           2.27075922
    C           1.59668902          -0.69660720           3.09803651
    C           0.35916371          -0.44382124           2.62182804
    C           0.17867596          -0.22096436           1.30388824
    C           4.99128976          -1.02354085           1.95519823
    C           3.89691986          -0.98465848           2.76859151
    C          -1.06324864           0.03037937           0.84300895
    C          -1.24439295           0.25352585          -0.47884284
    C           2.98895865           0.13358841          -3.85591435
    C           4.25524546          -0.11698900          -3.41488119
    C           6.22149892          -1.28238875           2.48308334
    C           6.36685019          -1.50503270           3.83147676
    C           5.29740121          -1.47160876           4.65643452
    C           4.05659305          -1.20948739           4.11861919
    C           2.99635547          -1.17963916           4.96023157
    C           2.77977047           0.36337790          -5.19826280
    C           3.82379820           0.34401659          -6.09673096
    C           5.06922757           0.09387005          -5.63698755
    C           5.29177399          -0.13691179          -4.30052391
    C           0.50363793           0.63849408          -4.80570739
    C           1.53851048           0.61600499          -5.67678074
    C          -1.59697632           0.69404739          -3.09842712
    C          -1.77232359           0.91955117          -4.44627881
    C          -0.72696539           0.89280895          -5.30311324
    C          -2.47843181           0.50497126          -0.94707749
    C          -2.65838105           0.72784709          -2.27095870
    C          -3.89670439           0.98437075          -2.76854810
    C          -4.05697141           1.20772593          -4.11871525
    C          -2.99669328           1.17592415          -4.96063344
    C          -3.55078053           0.54010438          -0.11636708
    C          -4.79816034           0.79636160          -0.59985255
    C          -4.99095132           1.02558374          -1.95484876
    C          -2.11934460           0.06277659           1.67298352
    C          -3.36909953           0.31645080           1.20928058
    C          -1.93654513          -0.16119488           2.99633112
    C          -2.98884089          -0.13362770           3.85575973
    C          -4.25500862           0.11943028           3.41522622
    C          -4.43389303           0.34772196           2.05815996
    C          -0.69811675          -0.41316047           3.46035698
    C          -6.22087642           1.28534300          -2.48261986
    C          -6.36663582           1.50641031          -3.83131736
    C          -5.29762674           1.47037085          -4.65649056
    C          -5.67480438           0.60395151           1.56775869
    C          -5.85484757           0.82604079           0.25369539
    C          -2.78012253          -0.36456892           5.19800664
    C          -3.82386224          -0.34400826           6.09666650
    C          -5.06892488          -0.09125640           5.63735949
    C          -5.29115803           0.14081723           4.30099667
    C          -0.50450907          -0.64205988           4.80512167
    C          -1.53890547          -0.61916274           5.67619687
    C           1.77142785          -0.92321657           4.44587944
    C           0.72658700          -0.89723178           5.30243982
    H           6.53917031          -0.63764242          -2.15852752
    H           6.84136832          -1.00966727           0.04679604
    H           7.10502256          -1.32730384           1.91581421
    H           7.32560620          -1.70460340           4.22561442
    H           5.39426945          -1.64060665           5.69203082
    H           3.11898341          -1.35055659           5.98506307
    H           3.63871536           0.52268438          -7.11862781
    H           5.88178923           0.07513691          -6.31065084
    H           6.29014171          -0.32284022          -4.03005612
    H           1.38106268           0.79028477          -6.69633521
    H          -0.86722800           1.06496099          -6.32532436
    H          -3.11972684           1.34576223          -5.98572606
    H          -7.10452685           1.32973724          -1.91542767
    H          -7.32532435           1.70628356          -4.22529852
    H          -5.39464044           1.63769585          -5.69239704
    H          -6.53862070           0.64090606           2.15898371
    H          -6.84036615           1.01619187          -0.04575372
    H          -3.63873541          -0.52304050           7.11851819
    H          -5.88149034          -0.07297902           6.31089533
    H          -6.28963768           0.32636187           4.03056650
    H          -1.38143956          -0.79243908           6.69597647
    H           0.86674884          -1.06802118           6.32487464
    C           6.33934777           2.87166564           3.57054061
    C           5.01267413           3.17517424           3.48807548
    C           4.58130817           4.20864587           2.67518820
    C           5.51142011           4.92662823           1.95404832
    C           6.84663280           4.62806495           2.02505532
    C           7.24724631           3.59222367           2.81883798
    C           9.66512545           3.61249523           2.48895287
    C          11.39662309           4.70477775           1.37938881
    C          11.96675407           3.74190145           2.12693563
    S           9.75476124           4.90371724           1.40999966
    S          11.03034331           2.76315109           3.06218981
    C           8.55544201           3.16023612           3.09399048
    H           6.67198709           2.07170546           4.18716342
    H           4.31203769           2.61674735           4.05659959
    H           3.54675522           4.45151422           2.61584132
    H           5.20133151           5.72785649           1.33331988
    H           7.55654144           5.18664982           1.48356250
    H          11.94084622           5.37038671           0.76614866
    H          13.01410614           3.55534719           2.13044426
    H           8.72342465           3.62947351           4.02185962
108
  -184.07216388
    C           3.47245745          -0.47803488          -1.29523875
    C           3.64217999          -0.80317007           0.08723209
    C           2.54671899          -0.64717592           0.98724520
    C           1.26928446          -0.29321325           0.50214816
    C           1.08146516          -0.04344132          -0.89627210
    C           2.18464335          -0.09999013          -1.77670880
    C          -0.21904087           0.24398873          -1.39061315
    C          -0.40670500           0.47726513          -2.78180676
    C           0.70958504           0.45202529          -3.65948426
    C           2.00563932           0.18107205          -3.16670120
    C           4.58647583          -0.49971229          -2.17260167
    C           5.80627029          -0.96692185          -1.67057736
    C           5.92665614          -1.42678289          -0.37082383
    C           4.89287198          -1.27211419           0.56370351
    C           2.74099452          -0.87289813           2.38442864
    C           1.64874181          -0.74848041           3.27024478
    C           0.35023165          -0.45609672           2.77803589
    C           0.15938708          -0.22427584           1.38735087
    C           5.12293380          -1.41169539           1.99765064
    C           4.03049046          -1.21109313           2.88267115
    C          -1.14376303           0.04862132           0.89163359
    C          -1.33468561           0.27964142          -0.51000307
    C           3.12148151           0.16114948          -4.05181720
    C           4.42811402          -0.13053939          -3.57247721
    C           6.39279601          -1.61267311           2.55159405
    C           6.60085057          -1.64641324           3.93357926
    C           5.53941377          -1.54107966           4.79750380
    C           4.23135221          -1.33119645           4.29570611
    C           3.13388570          -1.22245153           5.16098313
    C           2.91806212           0.40843872          -5.44742274
    C           4.03065138           0.36688148          -6.32475460
    C           5.29158658           0.11718213          -5.84132046
    C           5.49437423          -0.12085184          -4.47957161
    C           0.51364791           0.68619105          -5.06488380
    C           1.62201106           0.65415108          -5.92558790
    C          -1.70976227           0.74203301          -3.27818557
    C          -1.89528860           0.97668923          -4.68469516
    C          -0.78314944           0.93896621          -5.54058996
    C          -2.62968949           0.54279811          -1.00801576
    C          -2.82004419           0.77647245          -2.40531475
    C          -4.12381876           1.04007200          -2.91514023
    C          -4.29788527           1.27136570          -4.31703700
    C          -3.18607246           1.23529131          -5.17023225
    C          -3.75025369           0.57467519          -0.12451000
    C          -5.04965872           0.83730812          -0.63089803
    C          -5.25229713           1.07697822          -2.05307826
    C          -2.25006687           0.07903962           1.77065891
    C          -3.56038682           0.33974555           1.27155813
    C          -2.05942824          -0.15722145           3.16767317
    C          -3.17025295          -0.13445833           4.06002336
    C          -4.48240202           0.12643259           3.58402980
    C          -4.66826564           0.36663895           2.15926528
    C          -0.76170896          -0.41695626           3.65932441
    C          -6.51131695           1.34442698          -2.60371113
    C          -6.67704309           1.57233663          -3.97273195
    C          -5.59621212           1.53697410          -4.81836430
    C          -5.93279655           0.63204587           1.62229525
    C          -6.11639678           0.85927266           0.27509711
    C          -2.96043636          -0.37665629           5.45556586
    C          -4.06773049          -0.34689680           6.33896084
    C          -5.33007357          -0.08855820           5.86483180
    C          -5.53929885           0.14446487           4.50264049
    C          -0.56166268          -0.65992369           5.06247950
    C          -1.66593375          -0.63500522           5.92702762
    C           1.84239736          -0.96381673           4.67842348
    C           0.73367854          -0.91810943           5.53699775
    H           6.68993031          -0.94635760          -2.29530329
    H           6.86677362          -1.86830419          -0.06916638
    H           7.26629509          -1.71466100           1.91909632
    H           7.61000002          -1.75312144           4.32469226
    H           5.68966011          -1.59983025           5.87143863
    H           3.28448759          -1.34986450           6.22936082
    H           3.87327272           0.52296737          -7.38723409
    H           6.13578849           0.07847535          -6.52547099
    H           6.50998453          -0.31595001          -4.15041771
    H           1.47120357           0.81562987          -6.98945583
    H          -0.93158449           1.11399828          -6.60184775
    H          -3.32726019           1.41134957          -6.23277526
    H          -7.39789791           1.38457837          -1.97935002
    H          -7.66826788           1.77817776          -4.36840191
    H          -5.72209902           1.71453926          -5.88149183
    H          -6.79149203           0.66173842           2.28260366
    H          -7.11612032           1.06229260          -0.08965601
    H          -3.90310101          -0.52626287           7.39661549
    H          -6.17205951          -0.06350868           6.55192177
    H          -6.55627766           0.34403282           4.18156043
    H          -1.51313534          -0.82172659           6.98609508
    H           0.88079984          -1.10399307           6.59655512
    C           5.23024131           2.33110543           0.47670694
    C           4.43624927           3.46155557           0.45548006
    C           5.01153721           4.71338000           0.68093543
    C           6.39058497           4.80375959           0.82254181
    C           7.19357067           3.67291299           0.80658780
    C           6.62250533           2.39552133           0.66295834
    C           8.65172689           0.81730977           0.55107440
    C          11.23687165           0.58156088           0.35267002
    C          10.78045441          -0.67129002           0.44528895
    S          10.03796556           1.85994699           0.39002908
    S           9.06448563          -0.88497731           0.57024974
    C           7.34409728           1.14291484           0.65293456
    H           4.77316755           1.36147146           0.30726717
    H           3.37628399           3.38436960           0.23268088
    H           4.38289282           5.59848488           0.72611825
    H           6.84990583           5.78721092           0.90132152
    H           8.26899576           3.77643042           0.88285263
    H          12.28810479           0.82764444           0.28022995
    H          11.38534373          -1.56296397           0.42619121
    H           6.68839519           0.27935784           0.64258740
108
  -183.91667720
    C           3.48272174          -0.32474620          -1.25168343
    C           3.67057721          -0.55676909           0.12240505
    C           2.55767944          -0.52123950           0.98128566
    C           1.28431433          -0.26272286           0.49652904
    C           1.09680750          -0.03161586          -0.87263220
    C           2.18647364          -0.06396764          -1.73009944
    C          -0.18640330           0.22810635          -1.35405189
    C          -0.37257476           0.45868147          -2.72628110
    C           0.71062806           0.42895176          -3.59765575
    C           1.98852886           0.16879465          -3.10527071
    C           4.59130855          -0.35884671          -2.10906786
    C           5.86525370          -0.61830269          -1.61511114
    C           6.04692437          -0.85309512          -0.26647524
    C           4.96175153          -0.82052114           0.60011658
    C           2.73736957          -0.75314946           2.35897857
    C           1.64492618          -0.72290316           3.22639128
    C           0.37473077          -0.46170439           2.72515248
    C           0.18442763          -0.22901357           1.35461065
    C           5.13850971          -1.05237253           2.00752272
    C           4.01322342          -1.01481980           2.86789804
    C          -1.09589874           0.03091107           0.87263501
    C          -1.28356009           0.26200966          -0.49705607
    C           3.07502978           0.14058357          -3.98700342
    C           4.38369650          -0.12079289          -3.51147633
    C           6.38550975          -1.31400737           2.53978305
    C           6.52993803          -1.53677159           3.90459624
    C           5.44648004          -1.50839278           4.76535360
    C           4.17519991          -1.24764819           4.26115925
    C           3.08219298          -1.21648095           5.12248749
    C           2.85352526           0.37831135          -5.37182993
    C           3.93771595           0.34958592          -6.24560602
    C           5.20524989           0.09195208          -5.75632298
    C           5.43842316          -0.14246325          -4.40440606
    C           0.51049533           0.66393007          -4.98480183
    C           1.57856440           0.63692757          -5.85783463
    C          -1.64837752           0.72029158          -3.22561918
    C          -1.82487973           0.95226913          -4.61604537
    C          -0.75329727           0.92345719          -5.48448800
    C          -2.55885953           0.52182170          -0.98173503
    C          -2.73560840           0.75218746          -2.35830289
    C          -4.01546269           1.01692376          -2.86883449
    C          -4.17264235           1.24585608          -4.26138620
    C          -3.08537298           1.21267232          -5.12163262
    C          -3.66945093           0.55852211          -0.12165939
    C          -4.96291942           0.82115937          -0.60057203
    C          -5.13938157           1.05530690          -2.00699797
    C          -2.18713893           0.06421135           1.73113966
    C          -3.48140221           0.32711304           1.25106580
    C          -1.98711803          -0.16987602           3.10371166
    C          -3.07578601          -0.14056939           3.98893905
    C          -4.38279734           0.12401441           3.51050524
    C          -4.59177681           0.36326263           2.10992545
    C          -0.71341665          -0.43217785           3.59902337
    C          -6.38904587           1.31744824          -2.53702009
    C          -6.52807369           1.54089435          -3.90363143
    C          -5.44706181           1.50856562          -4.76384041
    C          -5.86419553           0.62413265           1.61424762
    C          -6.04855800           0.85264209           0.26746953
    C          -2.85295492          -0.37909208           5.37008423
    C          -3.93851538          -0.34865347           6.24544508
    C          -5.20391832          -0.08973658           5.75702705
    C          -5.43775983           0.14596541           4.40469270
    C          -0.50977680          -0.66796623           4.98293420
    C          -1.57962786          -0.63967581           5.85800553
    C           1.82714263          -0.95612898           4.61326302
    C           0.74953041          -0.92727265           5.48597920
    H           6.69043965          -0.63841291          -2.29957211
    H           7.01558764          -1.05680464           0.13256915
    H           7.21049351          -1.33815141           1.83412060
    H           7.50432322          -1.73944640           4.28783754
    H           5.44348436          -1.67007419           5.83513950
    H           3.15664693          -1.38587894           6.18397810
    H           3.64747382           0.54372230          -7.27050356
    H           6.03539897           0.06957180          -6.42600313
    H           6.42170560          -0.34904778          -3.98491741
    H           1.36330675           0.82270136          -6.89865937
    H          -0.89637452           1.10057551          -6.53797084
    H          -3.15691509           1.38053125          -6.18446210
    H          -7.21798830           1.33456997          -1.83154324
    H          -7.50367929           1.74178207          -4.28827643
    H          -5.44383476           1.66609504          -5.83528594
    H          -6.68901179           0.64272317           2.30071471
    H          -7.02261871           1.05625304          -0.13488898
    H          -3.64771754          -0.54468337           7.27041238
    H          -6.03548067          -0.06707721           6.42638537
    H          -6.42138422           0.35312529           3.98546128
    H          -1.36402286          -0.82557017           6.89742513
    H           0.89582297          -1.10455161           6.53684957
    C           9.63709186          -0.00803309           1.13449604
    C          10.98625901          -0.39645140           1.13255548
    C          11.93683061           0.61992238           1.14815317
    C          11.63170611           1.98772851           1.16253870
    C          10.28926904           2.38025666           1.19313158
    C           9.32614386           1.34806604           1.15656812
    C           7.25407800           2.71462061           1.18378424
    C           6.40045181           5.22044758           1.10539353
    C           5.13308097           4.31402759           1.05162758
    S           7.99915313           4.34321363           1.25525019
    S           5.49600438           2.51835163           1.06962786
    C           7.93669935           1.56548442           0.82157531
    H           8.78510956          -0.69731321           1.09456182
    H          11.18372721          -1.47018219           1.11403004
    H          12.98497874           0.31206932           1.15283318
    H          12.41066716           2.76777050           1.15247877
    H          10.01146174           3.45208299           1.13599522
    H           6.35161407           6.28308788           1.09621792
    H           4.13689100           4.67351216           1.05084564
    H           7.48547247           0.99347688          -0.04069049
108
  -183.49425174
    C           3.36261277          -0.31505864          -1.20680984
    C           3.54393208          -0.53839646           0.11623643
    C           2.47742195          -0.50541686           0.94728521
    C           1.24391633          -0.25400650           0.47831426
    C           1.06293378          -0.03104183          -0.84256725
    C           2.11829144          -0.06305988          -1.67303582
    C          -0.17884257           0.21920421          -1.30363540
    C          -0.35922781           0.44106258          -2.61999619
    C           0.69888321           0.40895611          -3.45089880
    C           1.93548585           0.15987146          -2.99391557
    C           4.41275594          -0.34117540          -2.06138897
    C           5.64278195          -0.59537135          -1.56143738
    C           5.82286886          -0.81703122          -0.24815674
    C           4.77893163          -0.79225939           0.61042411
    C           2.65669530          -0.72851388           2.26862153
    C           1.59505124          -0.69493995           3.08818016
    C           0.35884963          -0.44346016           2.61965214
    C           0.17845704          -0.22092274           1.30337328
    C           4.97055653          -1.01987907           1.94949308
    C           3.88967414          -0.98248278           2.75998241
    C          -1.06284389           0.03039592           0.84247216
    C          -1.24384490           0.25338734          -0.47845504
    C           2.98439492           0.13273199          -3.84558732
    C    