272
  -514.61609320
    C         -12.23624503           2.81065562          -0.00135326
    C         -12.25093685           1.43414802          -0.00161013
    C         -13.47055462           0.68106500          -0.00179836
    C         -12.25174061          -1.42057856          -0.00199830
    C         -13.47137367          -0.66726785          -0.00199532
    C         -12.23749037          -2.79788340          -0.00212353
    C          -9.77388009           7.07103162          -0.00022688
    C          -9.80373209           5.66855696          -0.00052332
    C         -11.00669116           4.94157168          -0.00084329
    C          -9.79275412           2.83117960          -0.00095733
    C         -11.02870975           3.54984486          -0.00115991
    C          -9.79501053           1.42137757          -0.00122096
    C         -11.01763033           0.70738734          -0.00168797
    C          -9.79507954          -1.41062588          -0.00189615
    C         -11.01815904          -0.69510721          -0.00189384
    C          -9.79383168          -2.82076075          -0.00208499
    C         -11.03001292          -3.53868560          -0.00215747
    C          -9.80719554          -5.66008432          -0.00228387
    C         -11.00977395          -4.93023915          -0.00226036
    C          -9.78085015          -7.06096341          -0.00244748
    C          -7.31431879          11.33454366           0.00119653
    C          -7.35619775           9.90109415           0.00074867
    C          -8.54195238           9.19999912           0.00047049
    C          -7.34024132           7.07242776           0.00057299
    C          -8.57807936           7.78578877           0.00014081
    C          -7.34663499           5.66026742           0.00082129
    C          -8.56692048           4.95253984          -0.00003764
    C          -7.34387874           2.82930945           0.00178835
    C          -8.57209984           3.54064132          -0.00000868
    C          -7.34479164           1.41839374           0.00174886
    C          -8.56898342           0.70981718          -0.00044269
    C          -7.34526991          -1.41250719          -0.00005327
    C          -8.56907937          -0.70082179          -0.00103381
    C          -7.34533756          -2.82396750          -0.00115563
    C          -8.57340387          -3.53329256          -0.00206910
    C          -7.35002141          -5.65553908          -0.00226306
    C          -8.57011219          -4.94533049          -0.00221358
    C          -7.34638203          -7.06801498          -0.00231539
    C          -8.58379374          -7.77989947          -0.00244598
    C          -7.36308295          -9.89680555          -0.00268938
    C          -8.55052023          -9.19224454          -0.00270936
    C          -7.32362219         -11.32887312          -0.00307076
    C          -4.88460388          11.32629524           0.00119500
    C          -6.14527517          12.00976699           0.00140743
    C          -4.89659979           9.89524192           0.00110183
    C          -6.11241839           9.19324712           0.00087938
    C          -4.89189123           7.06998498           0.00226539
    C          -6.12012782           7.77765692           0.00108176
    C          -4.89638276           5.65538435           0.00372137
    C          -6.11790217           4.94977876           0.00270584
    C          -4.89517454           2.82776614           0.00706913
    C          -6.12056993           3.53685666           0.00389700
    C          -4.89550887           1.41459542           0.00798393
    C          -6.11940139           0.70814408           0.00450155
    C          -4.89597058          -1.41284927           0.00559080
    C          -6.12002971          -0.70429144           0.00323541
    C          -4.89626875          -2.82634054           0.00250836
    C          -6.12160400          -3.53396130          -0.00062891
    C          -4.89849717          -5.65471512          -0.00185769
    C          -6.12106353          -4.94672270          -0.00184395
    C          -4.89667076          -7.06977490          -0.00228131
    C          -6.12537909          -7.77666832          -0.00231046
    C          -4.90120644          -9.89524735          -0.00235507
    C          -6.12044294          -9.19108714          -0.00239012
    C          -4.89355550         -11.32411999          -0.00265357
    C          -6.15442390         -12.00461082          -0.00305597
    C          -2.44239474          11.32316937           0.00120996
    C          -3.68389361          12.00173850           0.00132156
    C          -2.44597826           9.89439795           0.00141748
    C          -3.66734015           9.19165328           0.00149337
    C          -2.44481428           7.06847556           0.00399821
    C          -3.67114764           7.77433111           0.00241302
    C          -2.44732865           5.65358786           0.00616191
    C          -3.67057017           4.94759925           0.00614322
    C          -2.44726216           2.82522607           0.00971919
    C          -3.67192343           3.53406188           0.00788281
    C          -2.44767522           1.41214987           0.01290057
    C          -3.67106429           0.70610445           0.01118699
    C          -2.44768582          -1.41421147           0.01223624
    C          -3.67165463          -0.70635556           0.01053939
    C          -2.44822492          -2.82718501           0.00739041
    C          -3.67272299          -3.53435439           0.00289315
    C          -2.44900663          -5.65612024          -0.00079024
    C          -3.67313665          -4.94821374          -0.00040187
    C          -2.44811816          -7.07084492          -0.00199554
    C          -3.67504166          -7.77532795          -0.00221239
    C          -2.44978957          -9.89690704          -0.00211819
    C          -3.67311643          -9.19295981          -0.00218750
    C          -2.44892962         -11.32443754          -0.00233500
    C          -3.68986242         -12.00069846          -0.00265280
    C           0.00338215          11.32279402           0.00117817
    C          -1.22655891          12.00127935           0.00123960
    C           0.00204417           9.89431765           0.00148317
    C          -1.22056589           9.19135067           0.00185016
    C           0.00223487           7.06729430           0.00511701
    C          -1.22258328           7.77298680           0.00348508
    C           0.00120574           5.65229538           0.00885632
    C          -1.22255655           4.94623369           0.00870521
    C           0.00008295           2.82375420           0.01615328
    C          -1.22386502           3.53174823           0.01093180
    C          -0.00127948           1.41075307           0.01828377
    C          -1.22414752           0.70444477           0.01671903
    C          -0.00124544          -1.41542264           0.01464688
    C          -1.22463179          -0.70800624           0.01609051
    C          -0.00145335          -2.82839904           0.00910254
    C          -1.22460206          -3.53521098           0.00596614
    C          -0.00017537          -5.65643636           0.00004709
    C          -1.22468159          -4.94965210           0.00121436
    C          -0.00016171          -7.07172002          -0.00149692
    C          -1.22412801          -7.77671861          -0.00190723
    C           0.00040146          -9.89822120          -0.00187260
    C          -1.22384629          -9.19545414          -0.00197482
    C           0.00027132         -11.32656293          -0.00206117
    C          -1.22813273         -12.00212219          -0.00233148
    C           2.44904995          11.32098029           0.00113530
    C           1.23006159          11.99949997           0.00124811
    C           2.45014795           9.89332310           0.00111878
    C           1.22539106           9.19131805           0.00167540
    C           2.44783081           7.06632316           0.00333329
    C           1.22540081           7.77275053           0.00330080
    C           2.44807916           5.65184655           0.00614780
    C           1.22453206           4.94509743           0.01048969
    C           2.44670650           2.82368875           0.01216962
    C           1.22310998           3.53088730           0.01450905
    C           2.44545999           1.41082672           0.01306786
    C           1.22241762           0.70365137           0.01709713
    C           2.44592723          -1.41633036           0.00909054
    C           1.22179675          -0.70918162           0.01467266
    C           2.44597097          -2.82933973           0.00539490
    C           1.22293050          -3.53583661           0.00529903
    C           2.44842188          -5.65650761          -0.00018479
    C           1.22329150          -4.94984194           0.00131542
    C           2.44700459          -7.07149414          -0.00117539
    C           1.22517697          -7.77747898          -0.00151249
    C           2.45011599          -9.89750323          -0.00159696
    C           1.22359848          -9.19577005          -0.00168588
    C           2.44760533         -11.32616889          -0.00178318
    C           1.23129776         -12.00404995          -0.00203602
    C           4.89083729          11.32109353           0.00135606
    C           3.68847975          11.99820633           0.00140911
    C           4.89918830           9.89240073           0.00096647
    C           3.67228114           9.18905542           0.00098474
    C           4.89368587           7.06581695           0.00104533
    C           3.67345896           7.77164099           0.00145468
    C           4.89539152           5.65117228           0.00165093
    C           3.67114963           4.94403602           0.00461746
    C           4.89394824           2.82352950           0.00336855
    C           3.67088907           3.53081013           0.00659139
    C           4.89368106           1.41062157           0.00358551
    C           3.66976530           0.70342899           0.00760610
    C           4.89473059          -1.41595502           0.00213729
    C           3.66932438          -0.70909468           0.00621709
    C           4.89453368          -2.82899928           0.00103716
    C           3.67159949          -3.53619791           0.00178668
    C           4.89811385          -5.65525784          -0.00062121
    C           3.67119576          -4.94942976           0.00010730
    C           4.89475637          -7.07000162          -0.00096150
    C           3.67433679          -7.77597545          -0.00121323
    C           4.90183288          -9.89532650          -0.00131560
    C           3.67122363          -9.19349295          -0.00138240
    C           4.89114558         -11.32627326          -0.00151387
    C           3.69060363         -12.00290959          -0.00174856
    C           7.31945242          11.32646617           0.00180132
    C           6.15092633          12.00212186           0.00176789
    C           7.35898757           9.89487806           0.00142057
    C           6.11725317           9.18805888           0.00095517
    C           7.34177153           7.06585347           0.00071770
    C           6.12126395           7.77371325           0.00067395
    C           7.34584324           5.65355152           0.00047516
    C           6.11744262           4.94415504           0.00078606
    C           7.34174969           2.82303544           0.00023490
    C           6.11826065           3.53190577           0.00096443
    C           7.34239869           1.41243090           0.00012587
    C           6.11789863           0.70357631           0.00097330
    C           7.34366523          -1.41664417          -0.00010550
    C           6.11780240          -0.70823357           0.00068001
    C           7.34340795          -2.82728845          -0.00018239
    C           6.12082914          -3.53624794          -0.00016892
    C           7.34965518          -5.65719227          -0.00049885
    C           6.11961606          -4.94886508          -0.00046191
    C           7.34421208          -7.06933958          -0.00068325
    C           6.12429180          -7.77598793          -0.00092109
    C           7.36320877          -9.89721274          -0.00106507
    C           6.11772222          -9.19179679          -0.00109526
    C           7.32305918         -11.33064220          -0.00128863
    C           6.15410136         -12.00683112          -0.00150031
    C           8.54618429           9.19109876           0.00156496
    C           9.77518982           7.06112732           0.00146559
    C           8.57828301           7.77903227           0.00121876
    C           9.80215145           5.66043138           0.00120841
    C           8.56601618           4.94446374           0.00065238
    C           9.79032178           2.82339611           0.00077571
    C           8.56908679           3.53304859           0.00041673
    C           9.79208919           1.41427272           0.00060665
    C           8.56695565           0.70329697           0.00011835
    C           9.79389822          -1.41658230           0.00035803
    C           8.56719575          -0.70695360           0.00005322
    C           9.79267970          -2.82619029           0.00022111
    C           8.57254624          -3.53668856          -0.00009946
    C           9.80698956          -5.66301787          -0.00017980
    C           8.56942618          -4.94829459          -0.00024447
    C           9.77881082          -7.06517573          -0.00040406
    C           8.58332469          -7.78083909          -0.00064528
    C           8.54857750          -9.19493141          -0.00085356
    C          11.00529549           4.93258075           0.00149888
    C          12.23341705           2.80327046           0.00155800
    C          11.02576378           3.54168911           0.00131426
    C          12.24886374           1.42695326           0.00137846
    C          11.01569337           0.70096488           0.00095601
    C          12.24976091          -1.42683195           0.00094476
    C          11.01577183          -0.70123977           0.00077848
    C          12.23600058          -2.80318920           0.00069750
    C          11.02935714          -3.54355196           0.00035452
    C          11.00921771          -4.93498980           0.00011202
    C          13.46913296           0.67489811           0.00152237
    C          13.46958018          -0.67410892           0.00130221
    H         -13.16990907           3.35502373          -0.00122662
    H         -14.40036445           1.23003767          -0.00183467
    H         -14.40011445          -1.21897644          -0.00223278
    H         -13.17226072          -3.34057696          -0.00228832
    H         -10.70879159           7.61372598          -0.00016679
    H         -11.94221407           5.48353730          -0.00071426
    H         -11.94649728          -5.47042290          -0.00242129
    H         -10.71739915          -7.60072957          -0.00266718
    H          -8.25699821          11.86298729           0.00142612
    H          -9.47957172           9.73819341           0.00060324
    H          -9.48861481          -9.72952661          -0.00300864
    H          -8.26649408         -11.85610992          -0.00341939
    H          -6.12924930          13.09066900           0.00180167
    H          -6.14172127         -13.08482483          -0.00338303
    H          -3.67820714          13.08335379           0.00156861
    H          -3.68696273         -13.08153224          -0.00292687
    H          -1.22710448          13.08227929           0.00134585
    H          -1.22893995         -13.08282442          -0.00254811
    H           1.22757548          13.08037578           0.00144212
    H           1.23197981         -13.08481756          -0.00222319
    H           3.68647626          13.07890412           0.00172485
    H           3.69049742         -13.08437102          -0.00193173
    H           8.26207652          11.85405799           0.00205404
    H           6.13630790          13.08231241           0.00201616
    H           8.26770451         -11.85656052          -0.00130825
    H           6.14112513         -13.08775660          -0.00169275
    H           9.48417647           9.72779591           0.00190721
    H          10.71133517           7.60167828           0.00183146
    H          10.71551060          -7.60512405          -0.00039954
    H           9.48698972          -9.73199026          -0.00086265
    H          11.94011109           5.47501790           0.00183100
    H          13.16638307           3.34816063           0.00183370
    H          13.16992039          -3.34729486           0.00075466
    H          11.94530018          -5.47580068           0.00014308
    H          14.39783378           1.22594809           0.00177540
    H          14.39887677          -1.22440116           0.00137679
    C          -0.49027397          -2.00726996           7.03076450
C	0.42566675495701395	-2.6814520145292513	7.59664755
C	1.738866764957014	-2.6173900345292513	7.16556372
C	2.0860533649570137	-1.6975254245292515	6.1915362
C	1.1287396149570141	-0.8778060845292515	5.63064831
C	-0.20716208504298603	-0.9576928645292515	6.02971047
C	-1.067885965042986	1.0246661254707485	4.78257444
C	-0.35697185504298606	3.467612935470749	4.24728929
C	-1.4250881650429859	3.256077265470749	3.47822903
S	0.21514519495701398	2.162749535470749	5.23287828
S	-2.150097105042986	1.6690817554707484	3.53192258
C	-1.2253370150429859	-0.1996128645292515	5.31090701
H	-1.5616690250429859	-1.9524285145292517	7.36880597
H	0.15532101495701398	-3.3676584345292513	8.38217574
H	2.4861173649570136	-3.2793768845292512	7.57953855
H	3.1133234649570136	-1.6160950745292515	5.87257676
H	1.409970484957014	-0.20176446452925148	4.83957444
H	0.18404135495701396	4.388279185470748	4.32152108
H	-1.866502505042986	3.981744625470749	2.82393156
H	-2.156461705042986	-0.7140090845292515	5.10521313
