%nprocshared=4
%mem=1GB
%chk=nap.chk
# opt freq oniom(b3lyp/6-31g(d):pm6) empiricaldispersion=gd3 field=Z+10 fchk

[No Title]

0 1 1 2 1 2
 C               -1  -12.23324142    2.81324519   -0.00429597 M
 C               -1  -12.24803346    1.43248307   -0.00445637 M
 C               -1  -13.46814842    0.67890429   -0.00297080 M
 C               -1  -12.24774086   -1.42055122   -0.00439237 M
 C               -1  -13.46840145   -0.66961707   -0.00313842 M
 C               -1  -12.23242420   -2.80070423   -0.00414972 M
 C               -1   -9.77227656    7.06966680   -0.00409517 M
 C               -1   -9.80397671    5.66455473   -0.00456724 M
 C               -1  -11.00436983    4.94302901   -0.00512441 M
 C               -1   -9.79168736    2.83192928    0.00262991 M
 C               -1  -11.02671830    3.54727931   -0.00499140 M
 C               -1   -9.79280046    1.42149279    0.00585081 M
 C               -1  -11.01459333    0.70972859   -0.00206549 M
 C               -1   -9.79299303   -1.41017411    0.00478299 M
 C               -1  -11.01481545   -0.69794790   -0.00198474 M
 C               -1   -9.79115898   -2.82128088    0.00114039 M
 C               -1  -11.02675135   -3.53511359   -0.00441914 M
 C               -1   -9.80631534   -5.65539326   -0.00381551 M
 C               -1  -11.00525862   -4.93084673   -0.00454150 M
 C               -1   -9.77711115   -7.06053909   -0.00418200 M
 C               -1   -7.31279936   11.33320161    0.00063695 M
 C               -1   -7.35642393    9.89962080   -0.00138394 M
 C               -1   -8.54256108    9.19903091   -0.00164762 M
 C               -1   -7.33986119    7.06939668    0.00330762 M
 C               -1   -8.57754046    7.78300076   -0.00327858 M
 C               -1   -7.34663103    5.65626462    0.01270257 M
 C               -1   -8.56789337    4.94982776    0.00525449 M
 C               -1   -7.34248405    2.83034977    0.02019601 M
 C               -1   -8.57089540    3.53972274    0.01223475 M
 C               -1   -7.34226787    1.41883617    0.01735905 M
 C               -1   -8.56635743    0.71123387    0.01536505 M
 C               -1   -7.34355478   -1.40924646    0.01294225 M
 C               -1   -8.56724288   -0.69868818    0.01393236 M
 C               -1   -7.34291646   -2.82202871    0.01352981 M
 C               -1   -8.57103960   -3.53209675    0.00751082 M
 C               -1   -7.34802919   -5.65233606    0.00639506 M
 C               -1   -8.56855745   -4.94320922    0.00198779 M
 C               -1   -7.34372108   -7.06538902    0.00083965 M
 C               -1   -8.58338531   -7.77601519   -0.00344168 M
 C               -1   -7.36332477   -9.89352938   -0.00389218 M
 C               -1   -8.54884321   -9.19165352   -0.00387376 M
 C               -1   -7.32442777  -11.32637553   -0.00392616 M
 C               -1   -4.88479167   11.32570132   -0.00083083 M
 C               -1   -6.14508401   12.00831228    0.00092170 M
 C               -1   -4.89489834    9.89444811   -0.00029897 M
 C               -1   -6.11121266    9.19400528   -0.00037409 M
 C               -1   -4.89246499    7.06857216    0.01833526 M
 C               -1   -6.12052295    7.77653961    0.00648078 M
 C               -1   -4.89525195    5.65272353    0.02363167 M
 C               -1   -6.11760454    4.94796399    0.02301607 M
 C               -1   -4.89422069    2.82745400   -0.00435121 M
 C               -1   -6.11948015    3.53471437    0.02005215 M
 C               -1   -4.89449008    1.41528484   -0.02636011 M
 C               -1   -6.11824983    0.70997570   -0.00130113 M
 C               -1   -4.89355747   -1.41103088   -0.03611375 M
 C               -1   -6.11809209   -0.70342630   -0.00396850 M
 C               -1   -4.89326146   -2.82492367   -0.01960178 M
 C               -1   -6.11992589   -3.53048458    0.01042465 M
 C               -1   -4.89642587   -5.65282035    0.01470925 M
 C               -1   -6.11832599   -4.94517474    0.01305458 M
 C               -1   -4.89474947   -7.06814865    0.01309251 M
 C               -1   -6.12390233   -7.77282827    0.00335612 M
 C               -1   -4.90139615   -9.89157546   -0.00193804 M
 C               -1   -6.11705715   -9.18944286   -0.00179537 M
 C               -1   -4.89252776  -11.32252594   -0.00424201 M
 C               -1   -6.15529413  -12.00180937   -0.00401335 M
 C               -1   -2.44201549   11.32260375   -0.00216610 M
 C               -1   -3.68386729   11.99931183   -0.00018948 M
 C               -1   -2.44383603    9.89429110    0.00163029 M
 C               -1   -3.66554064    9.19098075    0.00531810 M
 C               -1   -2.44381951    7.06648383    0.01960955 M
 C               -1   -3.67016375    7.77261195    0.01666568 M
 C               -1   -2.44541172    5.65050301    0.00903312 M
 C               -1   -3.66882209    4.94548672    0.01047595 M
 C               -1   -2.44713913    2.82560275   -0.06322505 M
 C               -1   -3.67058650    3.53202667   -0.01625193 M
 C               -1   -2.44676166    1.41301350   -0.11107197 M
 C               -1   -3.67036962    0.70898106   -0.08177819 M
 C               -1   -2.44752706   -1.41320035   -0.16830776 M
 C               -1   -3.66962945   -0.70466705   -0.09581603 M
 C               -1   -2.44754678   -2.82833416   -0.14061413 M
 C               -1   -3.67000038   -3.53380446   -0.04891960 M
 C               -1   -2.44626548   -5.65369309   -0.01201687 M
 C               -1   -3.66935959   -4.94780321   -0.00819944 M
 C               -1   -2.44760457   -7.06880677    0.01710759 M
 C               -1   -3.67374505   -7.77358718    0.01522819 M
 C               -1   -2.44983626   -9.89299381    0.00131200 M
 C               -1   -3.67142442   -9.19044702    0.00453748 M
 C               -1   -2.44900126  -11.32148720   -0.00397853 M
 C               -1   -3.69256691  -11.99790134   -0.00411024 M
 C               -1    0.00196569   11.32184524   -0.00240557 M
 C               -1   -1.22647084   12.00048119   -0.00114271 M
 C               -1    0.00283319    9.89403198    0.00199123 M
 C               -1   -1.21992372    9.19180772    0.00823428 M
 C               -1    0.00087606    7.06612803    0.01442046 M
 C               -1   -1.22227364    7.77265704    0.01707656 M
 C               -1    0.00017240    5.65071161   -0.00327346 M
 C               -1   -1.22233192    4.94401583   -0.01474271 M
 C               -1   -0.00208399    2.82461895   -0.09207633 M
 C               -1   -1.22473437    3.53091120   -0.06030192 M
 C               -1   -0.00208827    1.41234656   -0.15786066 M
 C               -1   -1.22465956    0.70592940   -0.17849234 M
 C               -1   -0.00042612   -1.41689875   -0.26086434 M
 C               -1   -1.22350161   -0.70816239   -0.22668437 M
 C               -1   -0.00079065   -2.83258044   -0.23630420 M
 C               -1   -1.22441439   -3.53651738   -0.16893103 M
 C               -1   -0.00119758   -5.65533116   -0.04502636 M
 C               -1   -1.22349857   -4.94877907   -0.07461382 M
 C               -1   -0.00235773   -7.06930440    0.00884271 M
 C               -1   -1.22648787   -7.77340319    0.01668558 M
 C               -1   -0.00212318   -9.89528221    0.00159207 M
 C               -1   -1.22500921   -9.19180209    0.00842586 M
 C               -1   -0.00183463  -11.32384537   -0.00397337 M
 C               -1   -1.23288675  -11.99888006   -0.00401324 M
 C               -1    2.44816665   11.32120256   -0.00103768 M
 C               -1    1.23166735   11.99749694   -0.00071149 M
 C               -1    2.44855251    9.89247767    0.00104089 M
 C               -1    1.22474449    9.18995405    0.00646930 M
 C               -1    2.44642178    7.06601125    0.01374319 M
 C               -1    1.22489657    7.77096883    0.01376449 M
 C               -1    2.44585782    5.65057321    0.00685827 M
 C               -1    1.22279969    4.94409730   -0.01404910 M
 C               -1    2.44307327    2.82192850   -0.04374765 M
 C               -1    1.22121014    3.52995913   -0.05364166 M
 C               -1    2.44319422    1.40798827   -0.08187216 M
 C               -1    1.22071993    0.70347380   -0.15996946 M
 C               -1    2.44406706   -1.41613945   -0.13592698 M
 C               -1    1.22219080   -0.70991562   -0.20935863 M
 C               -1    2.44362105   -2.82972132   -0.11597565 M
 C               -1    1.22270798   -3.53789339   -0.16428181 M
 C               -1    2.44461477   -5.65283308   -0.00853580 M
 C               -1    1.22149792   -4.94901257   -0.07265585 M
 C               -1    2.44355135   -7.06817219    0.01494977 M
 C               -1    1.22185453   -7.77421169    0.01473197 M
 C               -1    2.44698390   -9.89487040    0.00077254 M
 C               -1    1.22161248   -9.19333531    0.00733077 M
 C               -1    2.44584926  -11.32418081   -0.00323038 M
 C               -1    1.22864673  -12.00157135   -0.00354055 M
 C               -1    4.89011928   11.32067294    0.00056807 M
 C               -1    3.69088487   11.99724597    0.00066968 M
 C               -1    4.89877646    9.88945859   -0.00018488 M
 C               -1    3.66914772    9.18823647    0.00229557 M
 C               -1    4.89299135    7.06537906    0.00745107 M
 C               -1    3.67225208    7.77096032    0.00874027 M
 C               -1    4.89367844    5.65008993    0.01184404 M
 C               -1    3.66770700    4.94379871    0.00791702 M
 C               -1    4.88982407    2.82310503    0.00862394 M
 C               -1    3.66626086    3.52962732   -0.00287040 M
 C               -1    4.88929701    1.41002412    0.00684232 M
 C               -1    3.66608703    0.70202619   -0.03767656 M
 C               -1    4.88922367   -1.41607861    0.00739235 M
 C               -1    3.66507296   -0.71093512   -0.04773821 M
 C               -1    4.88953318   -2.82797680    0.01279920 M
 C               -1    3.66602830   -3.53363544   -0.02270618 M
 C               -1    4.89495874   -5.65153462    0.01703022 M
 C               -1    3.66722748   -4.94687071    0.00217851 M
 C               -1    4.89381174   -7.06714211    0.00919451 M
 C               -1    3.67156364   -7.77168970    0.01197960 M
 C               -1    4.89875721   -9.89212559   -0.00200480 M
 C               -1    3.66846245   -9.18998191    0.00284383 M
 C               -1    4.89098590  -11.32329817   -0.00264286 M
 C               -1    3.69048759  -11.99905090   -0.00267828 M
 C               -1    7.31807431   11.32522928    0.00186943 M
 C               -1    6.15193668   12.00080067    0.00174706 M
 C               -1    7.35932621    9.89218646    0.00069027 M
 C               -1    6.11395653    9.18792217   -0.00052596 M
 C               -1    7.33932720    7.06520261   -0.00162701 M
 C               -1    6.12063348    7.77188740    0.00050011 M
 C               -1    7.34238225    5.65279138    0.00054022 M
 C               -1    6.11461008    4.94321348    0.00920041 M
 C               -1    7.33919436    2.82283458    0.00737031 M
 C               -1    6.11611845    3.52916301    0.01252385 M
 C               -1    7.33837088    1.41057560    0.01069598 M
 C               -1    6.11335822    0.70359578    0.01852965 M
 C               -1    7.33834901   -1.41612592    0.01482630 M
 C               -1    6.11289192   -0.70954812    0.02243082 M
 C               -1    7.34001939   -2.82710652    0.01140158 M
 C               -1    6.11695981   -3.53231517    0.02160428 M
 C               -1    7.34591105   -5.65299270   -0.00155028 M
 C               -1    6.11645400   -4.94536333    0.01242440 M
 C               -1    7.34118224   -7.06606821   -0.00386607 M
 C               -1    6.12246333   -7.77421346   -0.00120542 M
 C               -1    7.36089867   -9.89400881   -0.00207735 M
 C               -1    6.11461039   -9.19110940   -0.00273851 M
 C               -1    7.32021735  -11.32679391   -0.00141539 M
 C               -1    6.15323975  -12.00325978   -0.00194005 M
 C               -1    8.54481842    9.19060250    0.00158110 M
 C               -1    9.77059901    7.06063292    0.00139192 M
 C               -1    8.57791980    7.77605971   -0.00036405 M
 C               -1    9.80049878    5.65646283   -0.00042778 M
 C               -1    8.56284108    4.94477842   -0.00193710 M
 C               -1    9.78685086    2.82393700   -0.00119539 M
 C               -1    8.56660947    3.53411561   -0.00032752 M
 C               -1    9.78877463    1.41295341   -0.00128139 M
 C               -1    8.56251882    0.70165495    0.00239195 M
 C               -1    9.79029746   -1.41521305   -0.00254877 M
 C               -1    8.56238851   -0.70768290    0.00265243 M
 C               -1    9.78939355   -2.82504686   -0.00323599 M
 C               -1    8.56944087   -3.53455569   -0.00207792 M
 C               -1    9.80392391   -5.65692870   -0.00173600 M
 C               -1    8.56649988   -4.94461863   -0.00400090 M
 C               -1    9.77408902   -7.06168460   -0.00029291 M
 C               -1    8.58032358   -7.77686142   -0.00229485 M
 C               -1    8.54601544   -9.19226487   -0.00095081 M
 C               -1   11.00071376    4.93416733    0.00155044 M
 C               -1   12.22717027    2.80389439    0.00174010 M
 C               -1   11.02173070    3.53886760    0.00054743 M
 C               -1   12.24429882    1.42416912    0.00134104 M
 C               -1   11.01161886    0.70249413   -0.00032432 M
 C               -1   12.24446971   -1.42562883    0.00080048 M
 C               -1   11.01206810   -0.70403727   -0.00095928 M
 C               -1   12.22852816   -2.80506350    0.00103609 M
 C               -1   11.02376317   -3.53969388   -0.00065703 M
 C               -1   11.00402020   -4.93476395    0.00042673 M
 C               -1   13.46486422    0.67402070    0.00170458 M
 C               -1   13.46431391   -0.67473924    0.00156964 M
 H               -1  -13.16999630    3.35359370   -0.00046526 M
 H               -1  -14.40062212    1.22723833   -0.00142324 M
 H               -1  -14.39825493   -1.22329478   -0.00191592 M
 H               -1  -13.16825384   -3.34161864   -0.00214926 M
 H               -1  -10.70661370    7.61189414    0.00066051 M
 H               -1  -11.94102954    5.48173592    0.00015371 M
 H               -1  -11.94192123   -5.46928054   -0.00307466 M
 H               -1  -10.71401207   -7.59823502   -0.00377888 M
 H               -1   -8.25586883   11.85955166    0.00165923 M
 H               -1   -9.48116745    9.73713914    0.00120629 M
 H               -1   -9.48853047   -9.72669273   -0.00386387 M
 H               -1   -8.26781857  -11.85253541   -0.00364141 M
 H               -1   -6.12827918   13.08917761    0.00222812 M
 H               -1   -6.14244993  -13.08159127   -0.00353154 M
 H               -1   -3.67770865   13.07913218    0.00277353 M
 H               -1   -3.68847308  -13.07838878   -0.00343080 M
 H               -1   -1.22747430   13.08093920    0.00303136 M
 H               -1   -1.22982851  -13.07897922   -0.00318828 M
 H               -1    1.22749138   13.07688245    0.00299535 M
 H               -1    1.23144522  -13.08271035   -0.00267413 M
 H               -1    3.68766606   13.07771317    0.00253270 M
 H               -1    3.68899762  -13.07960542   -0.00201950 M
 H               -1    8.26192391   11.85087952    0.00238738 M
 H               -1    6.13698164   13.08178292    0.00219434 M
 H               -1    8.26479723  -11.84972979   -0.00095247 M
 H               -1    6.13837891  -13.08383325   -0.00173836 M
 H               -1    9.48374354    9.72577281    0.00268355 M
 H               -1   10.70637695    7.59838155    0.00275736 M
 H               -1   10.71026544   -7.60087499    0.00033329 M
 H               -1    9.48575003   -9.72736012   -0.00030030 M
 H               -1   11.93731595    5.47362899    0.00264030 M
 H               -1   13.16107680    3.34693407    0.00221791 M
 H               -1   13.16292940   -3.34624254    0.00121152 M
 H               -1   11.94049274   -5.47420688    0.00078431 M
 H               -1   14.39424901    1.22634519    0.00184444 M
 H               -1   14.39436005   -1.22480146    0.00153902 M
 C                0   -2.99378638    1.04948335    3.62068596 H
 C                0   -3.74504105    2.13564131    4.01512726 H
 C                0   -3.19392713    3.40210382    4.06417203 H
 C                0   -1.84435200    3.55591658    3.78845711 H
 C                0   -1.07998289    2.47279177    3.41562766 H
 C                0   -1.63551413    1.19311537    3.32524930 H
 C                0   -0.95304996   -1.22321067    3.08919158 H
 C                0   -1.72120447   -3.65630697    3.57564759 H
 C                0   -0.44396158   -3.77931203    3.22720382 H
 S                0   -2.42537176   -2.06390857    3.55564189 H
 S                0    0.39737333   -2.32732508    2.77358795 H
 C                0   -0.76245405    0.10268416    2.96124144 H
 H                0   -3.46087662    0.08076065    3.56737756 H
 H                0   -4.77323974    1.98882468    4.29980229 H
 H                0   -3.80811880    4.24943074    4.32864164 H
 H                0   -1.38291103    4.52430413    3.89039017 H
 H                0   -0.02745443    2.60657003    3.21401283 H
 H                0   -2.34841235   -4.45424508    3.92480278 H
 H                0    0.11401477   -4.69846476    3.20572855 H
 H                0    0.22111799    0.37714906    2.59479359 H

