272
  -514.61609320
C	-12.23624503	2.81065562	0.09864674000000001
C	-12.25093685	1.43414802	0.09838987
C	-13.47055462	0.681065	0.09820164
C	-12.25174061	-1.42057856	0.09800170000000001
C	-13.47137367	-0.66726785	0.09800468000000001
C	-12.23749037	-2.7978834	0.09787647000000001
C	-9.77388009	7.07103162	0.09977312
C	-9.80373209	5.66855696	0.09947668000000001
C	-11.00669116	4.94157168	0.09915671000000001
C	-9.79275412	2.8311796	0.09904267
C	-11.02870975	3.54984486	0.09884009
C	-9.79501053	1.42137757	0.09877904000000001
C	-11.01763033	0.70738734	0.09831203000000001
C	-9.79507954	-1.41062588	0.09810385
C	-11.01815904	-0.69510721	0.09810616000000001
C	-9.79383168	-2.82076075	0.09791501000000001
C	-11.03001292	-3.5386856	0.09784253000000001
C	-9.80719554	-5.66008432	0.09771613000000001
C	-11.00977395	-4.93023915	0.09773964
C	-9.78085015	-7.06096341	0.09755252
C	-7.31431879	11.33454366	0.10119653
C	-7.35619775	9.90109415	0.10074867000000001
C	-8.54195238	9.19999912	0.10047049000000001
C	-7.34024132	7.07242776	0.10057299
C	-8.57807936	7.78578877	0.10014081000000001
C	-7.34663499	5.66026742	0.10082129000000001
C	-8.56692048	4.95253984	0.09996236
C	-7.34387874	2.82930945	0.10178835
C	-8.57209984	3.54064132	0.09999132000000001
C	-7.34479164	1.41839374	0.10174886000000001
C	-8.56898342	0.70981718	0.09955731000000001
C	-7.34526991	-1.41250719	0.09994673000000001
C	-8.56907937	-0.70082179	0.09896619000000001
C	-7.34533756	-2.8239675	0.09884437
C	-8.57340387	-3.53329256	0.0979309
C	-7.35002141	-5.65553908	0.09773694000000001
C	-8.57011219	-4.94533049	0.09778642
C	-7.34638203	-7.06801498	0.09768461
C	-8.58379374	-7.77989947	0.09755402
C	-7.36308295	-9.89680555	0.09731062
C	-8.55052023	-9.19224454	0.09729064000000001
C	-7.32362219	-11.32887312	0.09692924
C	-4.88460388	11.32629524	0.10119500000000001
C	-6.14527517	12.00976699	0.10140743
C	-4.89659979	9.89524192	0.10110183
C	-6.11241839	9.19324712	0.10087938
C	-4.89189123	7.06998498	0.10226539000000001
C	-6.12012782	7.77765692	0.10108176
C	-4.89638276	5.65538435	0.10372137000000001
C	-6.11790217	4.94977876	0.10270584
C	-4.89517454	2.82776614	0.10706913000000001
C	-6.12056993	3.53685666	0.103897
C	-4.89550887	1.41459542	0.10798393
C	-6.11940139	0.70814408	0.10450155
C	-4.89597058	-1.41284927	0.10559080000000001
C	-6.12002971	-0.70429144	0.10323541
C	-4.89626875	-2.82634054	0.10250836
C	-6.121604	-3.5339613	0.09937109000000001
C	-4.89849717	-5.65471512	0.09814231000000001
C	-6.12106353	-4.9467227	0.09815605000000001
C	-4.89667076	-7.0697749	0.09771869000000001
C	-6.12537909	-7.77666832	0.09768954
C	-4.90120644	-9.89524735	0.09764493
C	-6.12044294	-9.19108714	0.09760988000000001
C	-4.8935555	-11.32411999	0.09734643000000001
C	-6.1544239	-12.00461082	0.09694403
C	-2.44239474	11.32316937	0.10120996
C	-3.68389361	12.0017385	0.10132156
C	-2.44597826	9.89439795	0.10141748
C	-3.66734015	9.19165328	0.10149337
C	-2.44481428	7.06847556	0.10399821000000001
C	-3.67114764	7.77433111	0.10241302000000001
C	-2.44732865	5.65358786	0.10616191
C	-3.67057017	4.94759925	0.10614322000000001
C	-2.44726216	2.82522607	0.10971919000000001
C	-3.67192343	3.53406188	0.10788281000000001
C	-2.44767522	1.41214987	0.11290057
C	-3.67106429	0.70610445	0.11118699000000001
C	-2.44768582	-1.41421147	0.11223624
C	-3.67165463	-0.70635556	0.11053939
C	-2.44822492	-2.82718501	0.10739041
C	-3.67272299	-3.53435439	0.10289315
C	-2.44900663	-5.65612024	0.09920976000000001
C	-3.67313665	-4.94821374	0.09959813
C	-2.44811816	-7.07084492	0.09800446
C	-3.67504166	-7.77532795	0.09778761000000001
C	-2.44978957	-9.89690704	0.09788181
C	-3.67311643	-9.19295981	0.09781250000000001
C	-2.44892962	-11.32443754	0.097665
C	-3.68986242	-12.00069846	0.09734720000000001
C	0.00338215	11.32279402	0.10117817000000001
C	-1.22655891	12.00127935	0.1012396
C	0.00204417	9.89431765	0.10148317000000001
C	-1.22056589	9.19135067	0.10185016000000001
C	0.00223487	7.0672943	0.10511701000000001
C	-1.22258328	7.7729868	0.10348508000000001
C	0.00120574	5.65229538	0.10885632
C	-1.22255655	4.94623369	0.10870521000000001
C	8.295E-5	2.8237542	0.11615328
C	-1.22386502	3.53174823	0.11093180000000001
C	-0.00127948	1.41075307	0.11828377000000001
C	-1.22414752	0.70444477	0.11671903
C	-0.00124544	-1.41542264	0.11464688
C	-1.22463179	-0.70800624	0.11609051000000001
C	-0.00145335	-2.82839904	0.10910254
C	-1.22460206	-3.53521098	0.10596614
C	-1.7537E-4	-5.65643636	0.10004709
C	-1.22468159	-4.9496521	0.10121436
C	-1.6171E-4	-7.07172002	0.09850308
C	-1.22412801	-7.77671861	0.09809277000000001
C	4.0146E-4	-9.8982212	0.0981274
C	-1.22384629	-9.19545414	0.09802518
C	2.7132E-4	-11.32656293	0.09793883
C	-1.22813273	-12.00212219	0.09766852000000001
C	2.44904995	11.32098029	0.10113530000000001
C	1.23006159	11.99949997	0.10124811
C	2.45014795	9.8933231	0.10111878
C	1.22539106	9.19131805	0.1016754
C	2.44783081	7.06632316	0.10333329000000001
C	1.22540081	7.77275053	0.10330080000000001
C	2.44807916	5.65184655	0.1061478
C	1.22453206	4.94509743	0.11048969
C	2.4467065	2.82368875	0.11216962000000001
C	1.22310998	3.5308873	0.11450905
C	2.44545999	1.41082672	0.11306786
C	1.22241762	0.70365137	0.11709713000000001
C	2.44592723	-1.41633036	0.10909054
C	1.22179675	-0.70918162	0.11467266000000001
C	2.44597097	-2.82933973	0.1053949
C	1.2229305	-3.53583661	0.10529903
C	2.44842188	-5.65650761	0.09981521
C	1.2232915	-4.94984194	0.10131542
C	2.44700459	-7.07149414	0.09882461000000001
C	1.22517697	-7.77747898	0.09848751
C	2.45011599	-9.89750323	0.09840304000000001
C	1.22359848	-9.19577005	0.09831412
C	2.44760533	-11.32616889	0.09821682000000001
C	1.23129776	-12.00404995	0.09796398
C	4.89083729	11.32109353	0.10135606000000001
C	3.68847975	11.99820633	0.10140911000000001
C	4.8991883	9.89240073	0.10096647
C	3.67228114	9.18905542	0.10098474
C	4.89368587	7.06581695	0.10104533
C	3.67345896	7.77164099	0.10145468
C	4.89539152	5.65117228	0.10165093
C	3.67114963	4.94403602	0.10461746000000001
C	4.89394824	2.8235295	0.10336855
C	3.67088907	3.53081013	0.10659139000000001
C	4.89368106	1.41062157	0.10358551
C	3.6697653	0.70342899	0.10760610000000001
C	4.89473059	-1.41595502	0.10213729
C	3.66932438	-0.70909468	0.10621709
C	4.89453368	-2.82899928	0.10103716
C	3.67159949	-3.53619791	0.10178668
C	4.89811385	-5.65525784	0.09937879000000001
C	3.67119576	-4.94942976	0.10010730000000001
C	4.89475637	-7.07000162	0.0990385
C	3.67433679	-7.77597545	0.09878677000000001
C	4.90183288	-9.8953265	0.0986844
C	3.67122363	-9.19349295	0.0986176
C	4.89114558	-11.32627326	0.09848613
C	3.69060363	-12.00290959	0.09825144000000001
C	7.31945242	11.32646617	0.10180132
C	6.15092633	12.00212186	0.10176789
C	7.35898757	9.89487806	0.10142057
C	6.11725317	9.18805888	0.10095517000000001
C	7.34177153	7.06585347	0.10071770000000001
C	6.12126395	7.77371325	0.10067395000000001
C	7.34584324	5.65355152	0.10047516000000001
C	6.11744262	4.94415504	0.10078606000000001
C	7.34174969	2.82303544	0.1002349
C	6.11826065	3.53190577	0.10096443000000001
C	7.34239869	1.4124309	0.10012587
C	6.11789863	0.70357631	0.1009733
C	7.34366523	-1.41664417	0.09989450000000001
C	6.1178024	-0.70823357	0.10068001
C	7.34340795	-2.82728845	0.09981761
C	6.12082914	-3.53624794	0.09983108
C	7.34965518	-5.65719227	0.09950115000000001
C	6.11961606	-4.94886508	0.09953809000000001
C	7.34421208	-7.06933958	0.09931675000000001
C	6.1242918	-7.77598793	0.09907891
C	7.36320877	-9.89721274	0.09893493
C	6.11772222	-9.19179679	0.09890474
C	7.32305918	-11.3306422	0.09871137
C	6.15410136	-12.00683112	0.09849969
C	8.54618429	9.19109876	0.10156496000000001
C	9.77518982	7.06112732	0.10146559000000001
C	8.57828301	7.77903227	0.10121876
C	9.80215145	5.66043138	0.10120841
C	8.56601618	4.94446374	0.10065238
C	9.79032178	2.82339611	0.10077571
C	8.56908679	3.53304859	0.10041673000000001
C	9.79208919	1.41427272	0.10060665
C	8.56695565	0.70329697	0.10011835000000001
C	9.79389822	-1.4165823	0.10035803
C	8.56719575	-0.7069536	0.10005322000000001
C	9.7926797	-2.82619029	0.10022111
C	8.57254624	-3.53668856	0.09990054000000001
C	9.80698956	-5.66301787	0.09982020000000001
C	8.56942618	-4.94829459	0.09975553000000001
C	9.77881082	-7.06517573	0.09959594000000001
C	8.58332469	-7.78083909	0.09935472000000001
C	8.5485775	-9.19493141	0.09914644
C	11.00529549	4.93258075	0.10149888
C	12.23341705	2.80327046	0.10155800000000001
C	11.02576378	3.54168911	0.10131426
C	12.24886374	1.42695326	0.10137846
C	11.01569337	0.70096488	0.10095601
C	12.24976091	-1.42683195	0.10094476000000001
C	11.01577183	-0.70123977	0.10077848
C	12.23600058	-2.8031892	0.10069750000000001
C	11.02935714	-3.54355196	0.10035452
C	11.00921771	-4.9349898	0.10011202000000001
C	13.46913296	0.67489811	0.10152237
C	13.46958018	-0.67410892	0.10130221
H	-13.16990907	3.35502373	0.09877338000000001
H	-14.40036445	1.23003767	0.09816533000000001
H	-14.40011445	-1.21897644	0.09776722
H	-13.17226072	-3.34057696	0.09771168000000001
H	-10.70879159	7.61372598	0.09983321
H	-11.94221407	5.4835373	0.09928574000000001
H	-11.94649728	-5.4704229	0.09757871
H	-10.71739915	-7.60072957	0.09733282
H	-8.25699821	11.86298729	0.10142612000000001
H	-9.47957172	9.73819341	0.10060324000000001
H	-9.48861481	-9.72952661	0.09699136
H	-8.26649408	-11.85610992	0.09658061000000001
H	-6.1292493	13.090669	0.10180167000000001
H	-6.14172127	-13.08482483	0.09661697000000001
H	-3.67820714	13.08335379	0.10156861
H	-3.68696273	-13.08153224	0.09707313000000001
H	-1.22710448	13.08227929	0.10134585
H	-1.22893995	-13.08282442	0.09745189
H	1.22757548	13.08037578	0.10144212000000001
H	1.23197981	-13.08481756	0.09777681
H	3.68647626	13.07890412	0.10172485
H	3.69049742	-13.08437102	0.09806827
H	8.26207652	11.85405799	0.10205404000000001
H	6.1363079	13.08231241	0.10201616000000001
H	8.26770451	-11.85656052	0.09869175000000001
H	6.14112513	-13.0877566	0.09830725
H	9.48417647	9.72779591	0.10190721000000001
H	10.71133517	7.60167828	0.10183146000000001
H	10.7155106	-7.60512405	0.09960046
H	9.48698972	-9.73199026	0.09913735
H	11.94011109	5.4750179	0.101831
H	13.16638307	3.34816063	0.1018337
H	13.16992039	-3.34729486	0.10075466000000001
H	11.94530018	-5.47580068	0.10014308000000001
H	14.39783378	1.22594809	0.1017754
H	14.39887677	-1.22440116	0.10137679000000001
C	-0.49027397	-2.00726996	7.1307645
C	0.42566675495701395	-2.6814520145292513	7.69664755
C	1.738866764957014	-2.6173900345292513	7.265563719999999
C	2.0860533649570137	-1.6975254245292515	6.2915361999999995
C	1.1287396149570141	-0.8778060845292515	5.730648309999999
C	-0.20716208504298603	-0.9576928645292515	6.12971047
C	-1.067885965042986	1.0246661254707485	4.88257444
C	-0.35697185504298606	3.467612935470749	4.34728929
C	-1.4250881650429859	3.256077265470749	3.57822903
S	0.21514519495701398	2.162749535470749	5.33287828
S	-2.150097105042986	1.6690817554707484	3.63192258
C	-1.2253370150429859	-0.1996128645292515	5.41090701
H	-1.5616690250429859	-1.9524285145292517	7.46880597
H	0.15532101495701398	-3.3676584345292513	8.482175739999999
H	2.4861173649570136	-3.2793768845292512	7.679538549999999
H	3.1133234649570136	-1.6160950745292515	5.97257676
H	1.409970484957014	-0.20176446452925148	4.9395744399999995
H	0.18404135495701396	4.388279185470748	4.42152108
H	-1.866502505042986	3.981744625470749	2.92393156
H	-2.156461705042986	-0.7140090845292515	5.20521313
