272
  -514.61609320
C	-12.23624503	2.81065562	0.19864674000000002
C	-12.25093685	1.43414802	0.19838987000000002
C	-13.47055462	0.681065	0.19820164
C	-12.25174061	-1.42057856	0.1980017
C	-13.47137367	-0.66726785	0.19800468000000002
C	-12.23749037	-2.7978834	0.19787647
C	-9.77388009	7.07103162	0.19977312
C	-9.80373209	5.66855696	0.19947668000000002
C	-11.00669116	4.94157168	0.19915671000000001
C	-9.79275412	2.8311796	0.19904267
C	-11.02870975	3.54984486	0.19884009000000002
C	-9.79501053	1.42137757	0.19877904000000002
C	-11.01763033	0.70738734	0.19831203
C	-9.79507954	-1.41062588	0.19810385
C	-11.01815904	-0.69510721	0.19810616
C	-9.79383168	-2.82076075	0.19791501
C	-11.03001292	-3.5386856	0.19784253000000002
C	-9.80719554	-5.66008432	0.19771613000000002
C	-11.00977395	-4.93023915	0.19773964000000002
C	-9.78085015	-7.06096341	0.19755252
C	-7.31431879	11.33454366	0.20119653
C	-7.35619775	9.90109415	0.20074867000000002
C	-8.54195238	9.19999912	0.20047049
C	-7.34024132	7.07242776	0.20057299
C	-8.57807936	7.78578877	0.20014081
C	-7.34663499	5.66026742	0.20082129
C	-8.56692048	4.95253984	0.19996236
C	-7.34387874	2.82930945	0.20178835
C	-8.57209984	3.54064132	0.19999132
C	-7.34479164	1.41839374	0.20174886
C	-8.56898342	0.70981718	0.19955731000000002
C	-7.34526991	-1.41250719	0.19994673000000002
C	-8.56907937	-0.70082179	0.19896619000000001
C	-7.34533756	-2.8239675	0.19884437000000002
C	-8.57340387	-3.53329256	0.19793090000000002
C	-7.35002141	-5.65553908	0.19773694
C	-8.57011219	-4.94533049	0.19778642000000002
C	-7.34638203	-7.06801498	0.19768461
C	-8.58379374	-7.77989947	0.19755402000000002
C	-7.36308295	-9.89680555	0.19731062000000002
C	-8.55052023	-9.19224454	0.19729064000000002
C	-7.32362219	-11.32887312	0.19692924
C	-4.88460388	11.32629524	0.201195
C	-6.14527517	12.00976699	0.20140743
C	-4.89659979	9.89524192	0.20110183
C	-6.11241839	9.19324712	0.20087938000000002
C	-4.89189123	7.06998498	0.20226539000000002
C	-6.12012782	7.77765692	0.20108176
C	-4.89638276	5.65538435	0.20372137
C	-6.11790217	4.94977876	0.20270584
C	-4.89517454	2.82776614	0.20706913000000002
C	-6.12056993	3.53685666	0.20389700000000002
C	-4.89550887	1.41459542	0.20798393
C	-6.11940139	0.70814408	0.20450155
C	-4.89597058	-1.41284927	0.20559080000000002
C	-6.12002971	-0.70429144	0.20323541
C	-4.89626875	-2.82634054	0.20250836
C	-6.121604	-3.5339613	0.19937109
C	-4.89849717	-5.65471512	0.19814231000000002
C	-6.12106353	-4.9467227	0.19815605
C	-4.89667076	-7.0697749	0.19771869
C	-6.12537909	-7.77666832	0.19768954000000002
C	-4.90120644	-9.89524735	0.19764493000000002
C	-6.12044294	-9.19108714	0.19760988000000002
C	-4.8935555	-11.32411999	0.19734643000000002
C	-6.1544239	-12.00461082	0.19694403000000002
C	-2.44239474	11.32316937	0.20120996000000002
C	-3.68389361	12.0017385	0.20132156
C	-2.44597826	9.89439795	0.20141748
C	-3.66734015	9.19165328	0.20149337
C	-2.44481428	7.06847556	0.20399821
C	-3.67114764	7.77433111	0.20241302
C	-2.44732865	5.65358786	0.20616191
C	-3.67057017	4.94759925	0.20614322000000002
C	-2.44726216	2.82522607	0.20971919
C	-3.67192343	3.53406188	0.20788281
C	-2.44767522	1.41214987	0.21290057
C	-3.67106429	0.70610445	0.21118699000000002
C	-2.44768582	-1.41421147	0.21223624000000002
C	-3.67165463	-0.70635556	0.21053939000000002
C	-2.44822492	-2.82718501	0.20739041000000003
C	-3.67272299	-3.53435439	0.20289315000000002
C	-2.44900663	-5.65612024	0.19920976
C	-3.67313665	-4.94821374	0.19959813
C	-2.44811816	-7.07084492	0.19800446000000002
C	-3.67504166	-7.77532795	0.19778761
C	-2.44978957	-9.89690704	0.19788181000000002
C	-3.67311643	-9.19295981	0.1978125
C	-2.44892962	-11.32443754	0.197665
C	-3.68986242	-12.00069846	0.1973472
C	0.00338215	11.32279402	0.20117817000000002
C	-1.22655891	12.00127935	0.20123960000000002
C	0.00204417	9.89431765	0.20148317000000002
C	-1.22056589	9.19135067	0.20185016
C	0.00223487	7.0672943	0.20511701000000002
C	-1.22258328	7.7729868	0.20348508
C	0.00120574	5.65229538	0.20885632
C	-1.22255655	4.94623369	0.20870521
C	8.295E-5	2.8237542	0.21615328
C	-1.22386502	3.53174823	0.2109318
C	-0.00127948	1.41075307	0.21828377000000002
C	-1.22414752	0.70444477	0.21671903
C	-0.00124544	-1.41542264	0.21464688
C	-1.22463179	-0.70800624	0.21609051
C	-0.00145335	-2.82839904	0.20910254
C	-1.22460206	-3.53521098	0.20596614000000002
C	-1.7537E-4	-5.65643636	0.20004709
C	-1.22468159	-4.9496521	0.20121436
C	-1.6171E-4	-7.07172002	0.19850308
C	-1.22412801	-7.77671861	0.19809277
C	4.0146E-4	-9.8982212	0.1981274
C	-1.22384629	-9.19545414	0.19802518000000002
C	2.7132E-4	-11.32656293	0.19793883
C	-1.22813273	-12.00212219	0.19766852000000001
C	2.44904995	11.32098029	0.20113530000000002
C	1.23006159	11.99949997	0.20124811
C	2.45014795	9.8933231	0.20111878000000002
C	1.22539106	9.19131805	0.2016754
C	2.44783081	7.06632316	0.20333329
C	1.22540081	7.77275053	0.2033008
C	2.44807916	5.65184655	0.20614780000000002
C	1.22453206	4.94509743	0.21048969
C	2.4467065	2.82368875	0.21216962
C	1.22310998	3.5308873	0.21450905
C	2.44545999	1.41082672	0.21306786
C	1.22241762	0.70365137	0.21709713
C	2.44592723	-1.41633036	0.20909054000000002
C	1.22179675	-0.70918162	0.21467266000000002
C	2.44597097	-2.82933973	0.20539490000000002
C	1.2229305	-3.53583661	0.20529903000000002
C	2.44842188	-5.65650761	0.19981521000000002
C	1.2232915	-4.94984194	0.20131542000000002
C	2.44700459	-7.07149414	0.19882461
C	1.22517697	-7.77747898	0.19848751
C	2.45011599	-9.89750323	0.19840304
C	1.22359848	-9.19577005	0.19831412
C	2.44760533	-11.32616889	0.19821682000000002
C	1.23129776	-12.00404995	0.19796398
C	4.89083729	11.32109353	0.20135606
C	3.68847975	11.99820633	0.20140911
C	4.8991883	9.89240073	0.20096647
C	3.67228114	9.18905542	0.20098474000000002
C	4.89368587	7.06581695	0.20104533000000002
C	3.67345896	7.77164099	0.20145468000000002
C	4.89539152	5.65117228	0.20165093
C	3.67114963	4.94403602	0.20461746
C	4.89394824	2.8235295	0.20336855
C	3.67088907	3.53081013	0.20659139
C	4.89368106	1.41062157	0.20358551000000003
C	3.6697653	0.70342899	0.20760610000000002
C	4.89473059	-1.41595502	0.20213729000000003
C	3.66932438	-0.70909468	0.20621709000000002
C	4.89453368	-2.82899928	0.20103716000000002
C	3.67159949	-3.53619791	0.20178668000000002
C	4.89811385	-5.65525784	0.19937879
C	3.67119576	-4.94942976	0.20010730000000002
C	4.89475637	-7.07000162	0.1990385
C	3.67433679	-7.77597545	0.19878677
C	4.90183288	-9.8953265	0.1986844
C	3.67122363	-9.19349295	0.1986176
C	4.89114558	-11.32627326	0.19848613
C	3.69060363	-12.00290959	0.19825144
C	7.31945242	11.32646617	0.20180132
C	6.15092633	12.00212186	0.20176789
C	7.35898757	9.89487806	0.20142057000000002
C	6.11725317	9.18805888	0.20095517000000002
C	7.34177153	7.06585347	0.2007177
C	6.12126395	7.77371325	0.20067395000000002
C	7.34584324	5.65355152	0.20047516
C	6.11744262	4.94415504	0.20078606000000002
C	7.34174969	2.82303544	0.20023490000000002
C	6.11826065	3.53190577	0.20096443
C	7.34239869	1.4124309	0.20012587
C	6.11789863	0.70357631	0.20097330000000002
C	7.34366523	-1.41664417	0.1998945
C	6.1178024	-0.70823357	0.20068001000000002
C	7.34340795	-2.82728845	0.19981761
C	6.12082914	-3.53624794	0.19983108000000002
C	7.34965518	-5.65719227	0.19950115000000002
C	6.11961606	-4.94886508	0.19953809
C	7.34421208	-7.06933958	0.19931675000000001
C	6.1242918	-7.77598793	0.19907891
C	7.36320877	-9.89721274	0.19893493
C	6.11772222	-9.19179679	0.19890474000000002
C	7.32305918	-11.3306422	0.19871137
C	6.15410136	-12.00683112	0.19849969
C	8.54618429	9.19109876	0.20156496000000002
C	9.77518982	7.06112732	0.20146559
C	8.57828301	7.77903227	0.20121876000000002
C	9.80215145	5.66043138	0.20120841
C	8.56601618	4.94446374	0.20065238000000002
C	9.79032178	2.82339611	0.20077571000000002
C	8.56908679	3.53304859	0.20041673000000002
C	9.79208919	1.41427272	0.20060665
C	8.56695565	0.70329697	0.20011835
C	9.79389822	-1.4165823	0.20035803000000002
C	8.56719575	-0.7069536	0.20005322
C	9.7926797	-2.82619029	0.20022111
C	8.57254624	-3.53668856	0.19990054000000002
C	9.80698956	-5.66301787	0.1998202
C	8.56942618	-4.94829459	0.19975553000000001
C	9.77881082	-7.06517573	0.19959594
C	8.58332469	-7.78083909	0.19935472
C	8.5485775	-9.19493141	0.19914644
C	11.00529549	4.93258075	0.20149888000000002
C	12.23341705	2.80327046	0.20155800000000001
C	11.02576378	3.54168911	0.20131426000000002
C	12.24886374	1.42695326	0.20137846
C	11.01569337	0.70096488	0.20095601000000002
C	12.24976091	-1.42683195	0.20094476
C	11.01577183	-0.70123977	0.20077848
C	12.23600058	-2.8031892	0.2006975
C	11.02935714	-3.54355196	0.20035452
C	11.00921771	-4.9349898	0.20011202
C	13.46913296	0.67489811	0.20152237
C	13.46958018	-0.67410892	0.20130221
H	-13.16990907	3.35502373	0.19877338
H	-14.40036445	1.23003767	0.19816533
H	-14.40011445	-1.21897644	0.19776722000000002
H	-13.17226072	-3.34057696	0.19771168
H	-10.70879159	7.61372598	0.19983321
H	-11.94221407	5.4835373	0.19928574000000002
H	-11.94649728	-5.4704229	0.19757871000000002
H	-10.71739915	-7.60072957	0.19733282000000002
H	-8.25699821	11.86298729	0.20142612000000001
H	-9.47957172	9.73819341	0.20060324000000002
H	-9.48861481	-9.72952661	0.19699136
H	-8.26649408	-11.85610992	0.19658061000000002
H	-6.1292493	13.090669	0.20180167000000002
H	-6.14172127	-13.08482483	0.19661697
H	-3.67820714	13.08335379	0.20156861
H	-3.68696273	-13.08153224	0.19707313
H	-1.22710448	13.08227929	0.20134585000000002
H	-1.22893995	-13.08282442	0.19745189000000002
H	1.22757548	13.08037578	0.20144212
H	1.23197981	-13.08481756	0.19777681000000003
H	3.68647626	13.07890412	0.20172485
H	3.69049742	-13.08437102	0.19806827000000002
H	8.26207652	11.85405799	0.20205404000000002
H	6.1363079	13.08231241	0.20201616
H	8.26770451	-11.85656052	0.19869175
H	6.14112513	-13.0877566	0.19830725000000002
H	9.48417647	9.72779591	0.20190721
H	10.71133517	7.60167828	0.20183146000000002
H	10.7155106	-7.60512405	0.19960046
H	9.48698972	-9.73199026	0.19913735000000002
H	11.94011109	5.4750179	0.201831
H	13.16638307	3.34816063	0.2018337
H	13.16992039	-3.34729486	0.20075466
H	11.94530018	-5.47580068	0.20014308
H	14.39783378	1.22594809	0.20177540000000002
H	14.39887677	-1.22440116	0.20137679
C	-0.49027397	-2.00726996	7.2307645
C	0.42566675495701395	-2.6814520145292513	7.79664755
C	1.738866764957014	-2.6173900345292513	7.36556372
C	2.0860533649570137	-1.6975254245292515	6.3915362
C	1.1287396149570141	-0.8778060845292515	5.83064831
C	-0.20716208504298603	-0.9576928645292515	6.2297104700000006
C	-1.067885965042986	1.0246661254707485	4.9825744400000005
C	-0.35697185504298606	3.467612935470749	4.4472892900000005
C	-1.4250881650429859	3.256077265470749	3.6782290300000002
S	0.21514519495701398	2.162749535470749	5.432878280000001
S	-2.150097105042986	1.6690817554707484	3.73192258
C	-1.2253370150429859	-0.1996128645292515	5.51090701
H	-1.5616690250429859	-1.9524285145292517	7.5688059700000005
H	0.15532101495701398	-3.3676584345292513	8.582175739999998
H	2.4861173649570136	-3.2793768845292512	7.77953855
H	3.1133234649570136	-1.6160950745292515	6.0725767600000005
H	1.409970484957014	-0.20176446452925148	5.03957444
H	0.18404135495701396	4.388279185470748	4.52152108
H	-1.866502505042986	3.981744625470749	3.0239315600000003
H	-2.156461705042986	-0.7140090845292515	5.30521313
