272
  -514.61609320
C	-12.23624503	2.81065562	0.29864674
C	-12.25093685	1.43414802	0.29838987000000006
C	-13.47055462	0.681065	0.29820164000000005
C	-12.25174061	-1.42057856	0.29800170000000004
C	-13.47137367	-0.66726785	0.29800468
C	-12.23749037	-2.7978834	0.29787647000000006
C	-9.77388009	7.07103162	0.29977312000000006
C	-9.80373209	5.66855696	0.29947668000000005
C	-11.00669116	4.94157168	0.29915671000000005
C	-9.79275412	2.8311796	0.29904267000000007
C	-11.02870975	3.54984486	0.29884009000000006
C	-9.79501053	1.42137757	0.29877904000000005
C	-11.01763033	0.70738734	0.29831203000000006
C	-9.79507954	-1.41062588	0.29810385000000006
C	-11.01815904	-0.69510721	0.29810616000000006
C	-9.79383168	-2.82076075	0.29791501000000004
C	-11.03001292	-3.5386856	0.29784253000000005
C	-9.80719554	-5.66008432	0.29771613
C	-11.00977395	-4.93023915	0.29773964
C	-9.78085015	-7.06096341	0.29755252000000004
C	-7.31431879	11.33454366	0.30119653
C	-7.35619775	9.90109415	0.30074867000000005
C	-8.54195238	9.19999912	0.30047049000000003
C	-7.34024132	7.07242776	0.30057299000000004
C	-8.57807936	7.78578877	0.30014081000000004
C	-7.34663499	5.66026742	0.30082129
C	-8.56692048	4.95253984	0.29996236000000004
C	-7.34387874	2.82930945	0.30178835000000004
C	-8.57209984	3.54064132	0.29999132000000006
C	-7.34479164	1.41839374	0.30174886000000006
C	-8.56898342	0.70981718	0.29955731
C	-7.34526991	-1.41250719	0.29994673000000005
C	-8.56907937	-0.70082179	0.29896619
C	-7.34533756	-2.8239675	0.29884437
C	-8.57340387	-3.53329256	0.29793090000000005
C	-7.35002141	-5.65553908	0.29773694000000006
C	-8.57011219	-4.94533049	0.29778642000000005
C	-7.34638203	-7.06801498	0.29768461000000007
C	-8.58379374	-7.77989947	0.29755402000000003
C	-7.36308295	-9.89680555	0.29731062
C	-8.55052023	-9.19224454	0.29729064000000005
C	-7.32362219	-11.32887312	0.29692924000000004
C	-4.88460388	11.32629524	0.30119500000000005
C	-6.14527517	12.00976699	0.30140743000000003
C	-4.89659979	9.89524192	0.30110183000000007
C	-6.11241839	9.19324712	0.30087938000000003
C	-4.89189123	7.06998498	0.30226539
C	-6.12012782	7.77765692	0.30108176000000003
C	-4.89638276	5.65538435	0.30372137000000005
C	-6.11790217	4.94977876	0.30270584000000006
C	-4.89517454	2.82776614	0.30706913
C	-6.12056993	3.53685666	0.30389700000000003
C	-4.89550887	1.41459542	0.30798393
C	-6.11940139	0.70814408	0.30450155000000007
C	-4.89597058	-1.41284927	0.30559080000000005
C	-6.12002971	-0.70429144	0.30323541000000004
C	-4.89626875	-2.82634054	0.30250836000000003
C	-6.121604	-3.5339613	0.29937109000000006
C	-4.89849717	-5.65471512	0.29814231
C	-6.12106353	-4.9467227	0.29815605000000006
C	-4.89667076	-7.0697749	0.29771869000000006
C	-6.12537909	-7.77666832	0.29768954000000003
C	-4.90120644	-9.89524735	0.29764493000000003
C	-6.12044294	-9.19108714	0.29760988000000005
C	-4.8935555	-11.32411999	0.29734643000000005
C	-6.1544239	-12.00461082	0.29694403
C	-2.44239474	11.32316937	0.30120996000000005
C	-3.68389361	12.0017385	0.30132156000000004
C	-2.44597826	9.89439795	0.30141748000000007
C	-3.66734015	9.19165328	0.30149337000000004
C	-2.44481428	7.06847556	0.30399821000000005
C	-3.67114764	7.77433111	0.30241302000000003
C	-2.44732865	5.65358786	0.30616191000000004
C	-3.67057017	4.94759925	0.30614322000000005
C	-2.44726216	2.82522607	0.30971919000000003
C	-3.67192343	3.53406188	0.30788281000000006
C	-2.44767522	1.41214987	0.31290057000000004
C	-3.67106429	0.70610445	0.31118699000000005
C	-2.44768582	-1.41421147	0.31223624000000005
C	-3.67165463	-0.70635556	0.31053939
C	-2.44822492	-2.82718501	0.30739041000000006
C	-3.67272299	-3.53435439	0.30289315000000006
C	-2.44900663	-5.65612024	0.29920976000000005
C	-3.67313665	-4.94821374	0.29959813
C	-2.44811816	-7.07084492	0.29800446
C	-3.67504166	-7.77532795	0.29778761000000004
C	-2.44978957	-9.89690704	0.29788181
C	-3.67311643	-9.19295981	0.29781250000000004
C	-2.44892962	-11.32443754	0.29766500000000007
C	-3.68986242	-12.00069846	0.29734720000000003
C	0.00338215	11.32279402	0.30117817
C	-1.22655891	12.00127935	0.30123960000000005
C	0.00204417	9.89431765	0.30148317
C	-1.22056589	9.19135067	0.30185016000000003
C	0.00223487	7.0672943	0.30511701
C	-1.22258328	7.7729868	0.30348508
C	0.00120574	5.65229538	0.3088563200000001
C	-1.22255655	4.94623369	0.30870521000000006
C	8.295E-5	2.8237542	0.31615328000000004
C	-1.22386502	3.53174823	0.31093180000000004
C	-0.00127948	1.41075307	0.31828377
C	-1.22414752	0.70444477	0.31671903000000007
C	-0.00124544	-1.41542264	0.31464688
C	-1.22463179	-0.70800624	0.31609051000000005
C	-0.00145335	-2.82839904	0.30910254000000004
C	-1.22460206	-3.53521098	0.30596614000000005
C	-1.7537E-4	-5.65643636	0.30004709000000007
C	-1.22468159	-4.9496521	0.30121436000000007
C	-1.6171E-4	-7.07172002	0.29850308000000003
C	-1.22412801	-7.77671861	0.29809277000000006
C	4.0146E-4	-9.8982212	0.29812740000000004
C	-1.22384629	-9.19545414	0.29802518000000006
C	2.7132E-4	-11.32656293	0.29793883000000004
C	-1.22813273	-12.00212219	0.29766852000000005
C	2.44904995	11.32098029	0.30113530000000005
C	1.23006159	11.99949997	0.30124811000000007
C	2.45014795	9.8933231	0.30111878000000003
C	1.22539106	9.19131805	0.30167540000000004
C	2.44783081	7.06632316	0.30333329000000003
C	1.22540081	7.77275053	0.30330080000000004
C	2.44807916	5.65184655	0.3061478
C	1.22453206	4.94509743	0.31048969000000004
C	2.4467065	2.82368875	0.31216962000000004
C	1.22310998	3.5308873	0.31450905000000007
C	2.44545999	1.41082672	0.31306786000000003
C	1.22241762	0.70365137	0.31709713000000006
C	2.44592723	-1.41633036	0.30909054
C	1.22179675	-0.70918162	0.31467266000000005
C	2.44597097	-2.82933973	0.3053949
C	1.2229305	-3.53583661	0.30529903
C	2.44842188	-5.65650761	0.29981521000000005
C	1.2232915	-4.94984194	0.30131542000000006
C	2.44700459	-7.07149414	0.29882461000000005
C	1.22517697	-7.77747898	0.29848751000000007
C	2.45011599	-9.89750323	0.29840304000000006
C	1.22359848	-9.19577005	0.29831412000000007
C	2.44760533	-11.32616889	0.29821682000000005
C	1.23129776	-12.00404995	0.29796398
C	4.89083729	11.32109353	0.30135606000000004
C	3.68847975	11.99820633	0.30140911000000004
C	4.8991883	9.89240073	0.30096647000000004
C	3.67228114	9.18905542	0.30098474000000003
C	4.89368587	7.06581695	0.30104533000000006
C	3.67345896	7.77164099	0.30145468000000003
C	4.89539152	5.65117228	0.30165093000000004
C	3.67114963	4.94403602	0.30461746000000006
C	4.89394824	2.8235295	0.30336855000000007
C	3.67088907	3.53081013	0.30659139
C	4.89368106	1.41062157	0.30358551000000006
C	3.6697653	0.70342899	0.30760610000000005
C	4.89473059	-1.41595502	0.30213729000000006
C	3.66932438	-0.70909468	0.30621709
C	4.89453368	-2.82899928	0.30103716
C	3.67159949	-3.53619791	0.30178668000000003
C	4.89811385	-5.65525784	0.29937879000000006
C	3.67119576	-4.94942976	0.3001073
C	4.89475637	-7.07000162	0.29903850000000004
C	3.67433679	-7.77597545	0.29878677000000003
C	4.90183288	-9.8953265	0.29868440000000007
C	3.67122363	-9.19349295	0.29861760000000004
C	4.89114558	-11.32627326	0.29848613000000007
C	3.69060363	-12.00290959	0.29825144000000003
C	7.31945242	11.32646617	0.30180132000000004
C	6.15092633	12.00212186	0.30176789000000004
C	7.35898757	9.89487806	0.30142057000000005
C	6.11725317	9.18805888	0.30095517000000005
C	7.34177153	7.06585347	0.30071770000000003
C	6.12126395	7.77371325	0.30067395
C	7.34584324	5.65355152	0.30047516
C	6.11744262	4.94415504	0.30078606
C	7.34174969	2.82303544	0.3002349
C	6.11826065	3.53190577	0.30096443000000006
C	7.34239869	1.4124309	0.30012587
C	6.11789863	0.70357631	0.30097330000000005
C	7.34366523	-1.41664417	0.29989450000000006
C	6.1178024	-0.70823357	0.30068001000000005
C	7.34340795	-2.82728845	0.29981761000000007
C	6.12082914	-3.53624794	0.29983108
C	7.34965518	-5.65719227	0.29950115000000005
C	6.11961606	-4.94886508	0.29953809000000003
C	7.34421208	-7.06933958	0.29931675
C	6.1242918	-7.77598793	0.29907891000000003
C	7.36320877	-9.89721274	0.29893493000000004
C	6.11772222	-9.19179679	0.29890474000000006
C	7.32305918	-11.3306422	0.29871137000000003
C	6.15410136	-12.00683112	0.29849969000000004
C	8.54618429	9.19109876	0.30156496000000005
C	9.77518982	7.06112732	0.30146559000000006
C	8.57828301	7.77903227	0.30121876000000003
C	9.80215145	5.66043138	0.30120841000000004
C	8.56601618	4.94446374	0.30065238000000005
C	9.79032178	2.82339611	0.30077571000000003
C	8.56908679	3.53304859	0.30041673
C	9.79208919	1.41427272	0.30060665000000003
C	8.56695565	0.70329697	0.30011835000000003
C	9.79389822	-1.4165823	0.30035803000000005
C	8.56719575	-0.7069536	0.30005322000000006
C	9.7926797	-2.82619029	0.30022111000000007
C	8.57254624	-3.53668856	0.29990054000000005
C	9.80698956	-5.66301787	0.29982020000000004
C	8.56942618	-4.94829459	0.29975553000000005
C	9.77881082	-7.06517573	0.29959594000000006
C	8.58332469	-7.78083909	0.29935472
C	8.5485775	-9.19493141	0.29914644000000007
C	11.00529549	4.93258075	0.30149888
C	12.23341705	2.80327046	0.30155800000000005
C	11.02576378	3.54168911	0.30131426000000006
C	12.24886374	1.42695326	0.30137846000000007
C	11.01569337	0.70096488	0.30095601000000005
C	12.24976091	-1.42683195	0.30094476000000003
C	11.01577183	-0.70123977	0.30077848000000007
C	12.23600058	-2.8031892	0.30069750000000006
C	11.02935714	-3.54355196	0.30035452000000007
C	11.00921771	-4.9349898	0.30011202000000003
C	13.46913296	0.67489811	0.30152237000000004
C	13.46958018	-0.67410892	0.30130221000000007
H	-13.16990907	3.35502373	0.29877338000000003
H	-14.40036445	1.23003767	0.29816533000000006
H	-14.40011445	-1.21897644	0.29776722000000005
H	-13.17226072	-3.34057696	0.29771168000000003
H	-10.70879159	7.61372598	0.29983321000000007
H	-11.94221407	5.4835373	0.29928574
H	-11.94649728	-5.4704229	0.29757871
H	-10.71739915	-7.60072957	0.29733282000000005
H	-8.25699821	11.86298729	0.30142612
H	-9.47957172	9.73819341	0.30060324000000005
H	-9.48861481	-9.72952661	0.29699136000000004
H	-8.26649408	-11.85610992	0.29658061
H	-6.1292493	13.090669	0.30180167
H	-6.14172127	-13.08482483	0.29661697000000004
H	-3.67820714	13.08335379	0.30156861000000007
H	-3.68696273	-13.08153224	0.29707313
H	-1.22710448	13.08227929	0.30134585
H	-1.22893995	-13.08282442	0.29745189000000005
H	1.22757548	13.08037578	0.30144212000000004
H	1.23197981	-13.08481756	0.29777681000000006
H	3.68647626	13.07890412	0.30172485000000004
H	3.69049742	-13.08437102	0.29806827
H	8.26207652	11.85405799	0.30205404
H	6.1363079	13.08231241	0.30201616000000003
H	8.26770451	-11.85656052	0.29869175000000003
H	6.14112513	-13.0877566	0.29830725
H	9.48417647	9.72779591	0.30190721000000004
H	10.71133517	7.60167828	0.30183146000000005
H	10.7155106	-7.60512405	0.29960046000000007
H	9.48698972	-9.73199026	0.29913735
H	11.94011109	5.4750179	0.30183100000000007
H	13.16638307	3.34816063	0.30183370000000004
H	13.16992039	-3.34729486	0.30075466000000006
H	11.94530018	-5.47580068	0.30014308000000006
H	14.39783378	1.22594809	0.3017754
H	14.39887677	-1.22440116	0.30137679000000006
C	-0.49027397	-2.00726996	7.3307645
C	0.42566675495701395	-2.6814520145292513	7.89664755
C	1.738866764957014	-2.6173900345292513	7.46556372
C	2.0860533649570137	-1.6975254245292515	6.4915362
C	1.1287396149570141	-0.8778060845292515	5.93064831
C	-0.20716208504298603	-0.9576928645292515	6.32971047
C	-1.067885965042986	1.0246661254707485	5.08257444
C	-0.35697185504298606	3.467612935470749	4.54728929
C	-1.4250881650429859	3.256077265470749	3.7782290300000003
S	0.21514519495701398	2.162749535470749	5.53287828
S	-2.150097105042986	1.6690817554707484	3.8319225799999996
C	-1.2253370150429859	-0.1996128645292515	5.61090701
H	-1.5616690250429859	-1.9524285145292517	7.66880597
H	0.15532101495701398	-3.3676584345292513	8.68217574
H	2.4861173649570136	-3.2793768845292512	7.8795385499999995
H	3.1133234649570136	-1.6160950745292515	6.17257676
H	1.409970484957014	-0.20176446452925148	5.13957444
H	0.18404135495701396	4.388279185470748	4.62152108
H	-1.866502505042986	3.981744625470749	3.12393156
H	-2.156461705042986	-0.7140090845292515	5.40521313
