272
  -514.61609320
C	-12.23624503	2.81065562	0.39864674
C	-12.25093685	1.43414802	0.39838987000000003
C	-13.47055462	0.681065	0.39820164
C	-12.25174061	-1.42057856	0.3980017
C	-13.47137367	-0.66726785	0.39800468
C	-12.23749037	-2.7978834	0.39787647000000004
C	-9.77388009	7.07103162	0.39977312000000004
C	-9.80373209	5.66855696	0.39947668000000003
C	-11.00669116	4.94157168	0.39915671
C	-9.79275412	2.8311796	0.39904267000000004
C	-11.02870975	3.54984486	0.39884009000000004
C	-9.79501053	1.42137757	0.39877904000000003
C	-11.01763033	0.70738734	0.39831203000000004
C	-9.79507954	-1.41062588	0.39810385000000004
C	-11.01815904	-0.69510721	0.39810616000000004
C	-9.79383168	-2.82076075	0.39791501
C	-11.03001292	-3.5386856	0.39784253
C	-9.80719554	-5.66008432	0.39771613
C	-11.00977395	-4.93023915	0.39773964
C	-9.78085015	-7.06096341	0.39755252
C	-7.31431879	11.33454366	0.40119653
C	-7.35619775	9.90109415	0.40074867000000003
C	-8.54195238	9.19999912	0.40047049
C	-7.34024132	7.07242776	0.40057299
C	-8.57807936	7.78578877	0.40014081
C	-7.34663499	5.66026742	0.40082129
C	-8.56692048	4.95253984	0.39996236
C	-7.34387874	2.82930945	0.40178835
C	-8.57209984	3.54064132	0.39999132000000004
C	-7.34479164	1.41839374	0.40174886000000004
C	-8.56898342	0.70981718	0.39955731
C	-7.34526991	-1.41250719	0.39994673000000003
C	-8.56907937	-0.70082179	0.39896619
C	-7.34533756	-2.8239675	0.39884437
C	-8.57340387	-3.53329256	0.39793090000000003
C	-7.35002141	-5.65553908	0.39773694000000004
C	-8.57011219	-4.94533049	0.39778642000000003
C	-7.34638203	-7.06801498	0.39768461000000005
C	-8.58379374	-7.77989947	0.39755402
C	-7.36308295	-9.89680555	0.39731062
C	-8.55052023	-9.19224454	0.39729064000000003
C	-7.32362219	-11.32887312	0.39692924
C	-4.88460388	11.32629524	0.401195
C	-6.14527517	12.00976699	0.40140743
C	-4.89659979	9.89524192	0.40110183000000005
C	-6.11241839	9.19324712	0.40087938
C	-4.89189123	7.06998498	0.40226539
C	-6.12012782	7.77765692	0.40108176
C	-4.89638276	5.65538435	0.40372137
C	-6.11790217	4.94977876	0.40270584000000004
C	-4.89517454	2.82776614	0.40706913
C	-6.12056993	3.53685666	0.403897
C	-4.89550887	1.41459542	0.40798393
C	-6.11940139	0.70814408	0.40450155000000004
C	-4.89597058	-1.41284927	0.40559080000000003
C	-6.12002971	-0.70429144	0.40323541
C	-4.89626875	-2.82634054	0.40250836
C	-6.121604	-3.5339613	0.39937109000000004
C	-4.89849717	-5.65471512	0.39814231
C	-6.12106353	-4.9467227	0.39815605000000004
C	-4.89667076	-7.0697749	0.39771869000000004
C	-6.12537909	-7.77666832	0.39768954
C	-4.90120644	-9.89524735	0.39764493
C	-6.12044294	-9.19108714	0.39760988
C	-4.8935555	-11.32411999	0.39734643000000003
C	-6.1544239	-12.00461082	0.39694403
C	-2.44239474	11.32316937	0.40120996000000003
C	-3.68389361	12.0017385	0.40132156
C	-2.44597826	9.89439795	0.40141748000000005
C	-3.66734015	9.19165328	0.40149337
C	-2.44481428	7.06847556	0.40399821
C	-3.67114764	7.77433111	0.40241302
C	-2.44732865	5.65358786	0.40616191
C	-3.67057017	4.94759925	0.40614322
C	-2.44726216	2.82522607	0.40971919
C	-3.67192343	3.53406188	0.40788281000000004
C	-2.44767522	1.41214987	0.41290057
C	-3.67106429	0.70610445	0.41118699000000003
C	-2.44768582	-1.41421147	0.41223624000000003
C	-3.67165463	-0.70635556	0.41053939
C	-2.44822492	-2.82718501	0.40739041000000004
C	-3.67272299	-3.53435439	0.40289315000000003
C	-2.44900663	-5.65612024	0.39920976
C	-3.67313665	-4.94821374	0.39959813
C	-2.44811816	-7.07084492	0.39800446
C	-3.67504166	-7.77532795	0.39778761
C	-2.44978957	-9.89690704	0.39788181
C	-3.67311643	-9.19295981	0.3978125
C	-2.44892962	-11.32443754	0.39766500000000005
C	-3.68986242	-12.00069846	0.3973472
C	0.00338215	11.32279402	0.40117817
C	-1.22655891	12.00127935	0.40123960000000003
C	0.00204417	9.89431765	0.40148317
C	-1.22056589	9.19135067	0.40185016
C	0.00223487	7.0672943	0.40511701
C	-1.22258328	7.7729868	0.40348508
C	0.00120574	5.65229538	0.40885632000000005
C	-1.22255655	4.94623369	0.40870521000000004
C	8.295E-5	2.8237542	0.41615328
C	-1.22386502	3.53174823	0.4109318
C	-0.00127948	1.41075307	0.41828377
C	-1.22414752	0.70444477	0.41671903000000005
C	-0.00124544	-1.41542264	0.41464688
C	-1.22463179	-0.70800624	0.41609051
C	-0.00145335	-2.82839904	0.40910254
C	-1.22460206	-3.53521098	0.40596614000000003
C	-1.7537E-4	-5.65643636	0.40004709000000005
C	-1.22468159	-4.9496521	0.40121436000000005
C	-1.6171E-4	-7.07172002	0.39850308
C	-1.22412801	-7.77671861	0.39809277000000004
C	4.0146E-4	-9.8982212	0.3981274
C	-1.22384629	-9.19545414	0.39802518000000003
C	2.7132E-4	-11.32656293	0.39793883
C	-1.22813273	-12.00212219	0.39766852
C	2.44904995	11.32098029	0.40113530000000003
C	1.23006159	11.99949997	0.40124811000000005
C	2.45014795	9.8933231	0.40111878
C	1.22539106	9.19131805	0.4016754
C	2.44783081	7.06632316	0.40333329
C	1.22540081	7.77275053	0.4033008
C	2.44807916	5.65184655	0.4061478
C	1.22453206	4.94509743	0.41048969
C	2.4467065	2.82368875	0.41216962
C	1.22310998	3.5308873	0.41450905000000005
C	2.44545999	1.41082672	0.41306786
C	1.22241762	0.70365137	0.41709713000000004
C	2.44592723	-1.41633036	0.40909054
C	1.22179675	-0.70918162	0.41467266
C	2.44597097	-2.82933973	0.4053949
C	1.2229305	-3.53583661	0.40529903
C	2.44842188	-5.65650761	0.39981521000000003
C	1.2232915	-4.94984194	0.40131542000000003
C	2.44700459	-7.07149414	0.39882461
C	1.22517697	-7.77747898	0.39848751000000004
C	2.45011599	-9.89750323	0.39840304000000004
C	1.22359848	-9.19577005	0.39831412000000005
C	2.44760533	-11.32616889	0.39821682
C	1.23129776	-12.00404995	0.39796398
C	4.89083729	11.32109353	0.40135606
C	3.68847975	11.99820633	0.40140911
C	4.8991883	9.89240073	0.40096647
C	3.67228114	9.18905542	0.40098474
C	4.89368587	7.06581695	0.40104533000000003
C	3.67345896	7.77164099	0.40145468
C	4.89539152	5.65117228	0.40165093
C	3.67114963	4.94403602	0.40461746000000004
C	4.89394824	2.8235295	0.40336855000000005
C	3.67088907	3.53081013	0.40659139
C	4.89368106	1.41062157	0.40358551000000004
C	3.6697653	0.70342899	0.4076061
C	4.89473059	-1.41595502	0.40213729000000004
C	3.66932438	-0.70909468	0.40621709
C	4.89453368	-2.82899928	0.40103716
C	3.67159949	-3.53619791	0.40178668
C	4.89811385	-5.65525784	0.39937879000000004
C	3.67119576	-4.94942976	0.4001073
C	4.89475637	-7.07000162	0.3990385
C	3.67433679	-7.77597545	0.39878677
C	4.90183288	-9.8953265	0.39868440000000005
C	3.67122363	-9.19349295	0.3986176
C	4.89114558	-11.32627326	0.39848613000000005
C	3.69060363	-12.00290959	0.39825144
C	7.31945242	11.32646617	0.40180132
C	6.15092633	12.00212186	0.40176789
C	7.35898757	9.89487806	0.40142057000000003
C	6.11725317	9.18805888	0.40095517
C	7.34177153	7.06585347	0.4007177
C	6.12126395	7.77371325	0.40067395
C	7.34584324	5.65355152	0.40047516
C	6.11744262	4.94415504	0.40078606
C	7.34174969	2.82303544	0.4002349
C	6.11826065	3.53190577	0.40096443000000004
C	7.34239869	1.4124309	0.40012587
C	6.11789863	0.70357631	0.40097330000000003
C	7.34366523	-1.41664417	0.39989450000000004
C	6.1178024	-0.70823357	0.40068001000000003
C	7.34340795	-2.82728845	0.39981761000000005
C	6.12082914	-3.53624794	0.39983108
C	7.34965518	-5.65719227	0.39950115
C	6.11961606	-4.94886508	0.39953809
C	7.34421208	-7.06933958	0.39931675
C	6.1242918	-7.77598793	0.39907891
C	7.36320877	-9.89721274	0.39893493
C	6.11772222	-9.19179679	0.39890474000000004
C	7.32305918	-11.3306422	0.39871137
C	6.15410136	-12.00683112	0.39849969
C	8.54618429	9.19109876	0.40156496
C	9.77518982	7.06112732	0.40146559000000004
C	8.57828301	7.77903227	0.40121876
C	9.80215145	5.66043138	0.40120841
C	8.56601618	4.94446374	0.40065238000000003
C	9.79032178	2.82339611	0.40077571
C	8.56908679	3.53304859	0.40041673
C	9.79208919	1.41427272	0.40060665
C	8.56695565	0.70329697	0.40011835
C	9.79389822	-1.4165823	0.40035803000000003
C	8.56719575	-0.7069536	0.40005322000000004
C	9.7926797	-2.82619029	0.40022111000000005
C	8.57254624	-3.53668856	0.39990054
C	9.80698956	-5.66301787	0.3998202
C	8.56942618	-4.94829459	0.39975553
C	9.77881082	-7.06517573	0.39959594000000004
C	8.58332469	-7.78083909	0.39935472
C	8.5485775	-9.19493141	0.39914644000000005
C	11.00529549	4.93258075	0.40149888
C	12.23341705	2.80327046	0.401558
C	11.02576378	3.54168911	0.40131426000000003
C	12.24886374	1.42695326	0.40137846000000005
C	11.01569337	0.70096488	0.40095601000000003
C	12.24976091	-1.42683195	0.40094476
C	11.01577183	-0.70123977	0.40077848000000005
C	12.23600058	-2.8031892	0.40069750000000004
C	11.02935714	-3.54355196	0.40035452000000005
C	11.00921771	-4.9349898	0.40011202
C	13.46913296	0.67489811	0.40152237
C	13.46958018	-0.67410892	0.40130221000000005
H	-13.16990907	3.35502373	0.39877338
H	-14.40036445	1.23003767	0.39816533000000004
H	-14.40011445	-1.21897644	0.39776722000000003
H	-13.17226072	-3.34057696	0.39771168
H	-10.70879159	7.61372598	0.39983321000000005
H	-11.94221407	5.4835373	0.39928574
H	-11.94649728	-5.4704229	0.39757871
H	-10.71739915	-7.60072957	0.39733282000000003
H	-8.25699821	11.86298729	0.40142612
H	-9.47957172	9.73819341	0.40060324
H	-9.48861481	-9.72952661	0.39699136
H	-8.26649408	-11.85610992	0.39658061
H	-6.1292493	13.090669	0.40180167
H	-6.14172127	-13.08482483	0.39661697
H	-3.67820714	13.08335379	0.40156861000000005
H	-3.68696273	-13.08153224	0.39707313
H	-1.22710448	13.08227929	0.40134585
H	-1.22893995	-13.08282442	0.39745189000000003
H	1.22757548	13.08037578	0.40144212
H	1.23197981	-13.08481756	0.39777681000000004
H	3.68647626	13.07890412	0.40172485
H	3.69049742	-13.08437102	0.39806827
H	8.26207652	11.85405799	0.40205404
H	6.1363079	13.08231241	0.40201616
H	8.26770451	-11.85656052	0.39869175
H	6.14112513	-13.0877566	0.39830725
H	9.48417647	9.72779591	0.40190721
H	10.71133517	7.60167828	0.40183146000000003
H	10.7155106	-7.60512405	0.39960046000000005
H	9.48698972	-9.73199026	0.39913735
H	11.94011109	5.4750179	0.40183100000000005
H	13.16638307	3.34816063	0.4018337
H	13.16992039	-3.34729486	0.40075466000000004
H	11.94530018	-5.47580068	0.40014308000000004
H	14.39783378	1.22594809	0.4017754
H	14.39887677	-1.22440116	0.40137679000000004
C	-0.49027397	-2.00726996	7.4307645
C	0.42566675495701395	-2.6814520145292513	7.9966475500000005
C	1.738866764957014	-2.6173900345292513	7.56556372
C	2.0860533649570137	-1.6975254245292515	6.5915362
C	1.1287396149570141	-0.8778060845292515	6.03064831
C	-0.20716208504298603	-0.9576928645292515	6.429710470000001
C	-1.067885965042986	1.0246661254707485	5.182574440000001
C	-0.35697185504298606	3.467612935470749	4.647289290000001
C	-1.4250881650429859	3.256077265470749	3.87822903
S	0.21514519495701398	2.162749535470749	5.632878280000001
S	-2.150097105042986	1.6690817554707484	3.9319225799999997
C	-1.2253370150429859	-0.1996128645292515	5.710907010000001
H	-1.5616690250429859	-1.9524285145292517	7.768805970000001
H	0.15532101495701398	-3.3676584345292513	8.78217574
H	2.4861173649570136	-3.2793768845292512	7.97953855
H	3.1133234649570136	-1.6160950745292515	6.272576760000001
H	1.409970484957014	-0.20176446452925148	5.23957444
H	0.18404135495701396	4.388279185470748	4.7215210800000005
H	-1.866502505042986	3.981744625470749	3.22393156
H	-2.156461705042986	-0.7140090845292515	5.5052131300000005
