272
  -514.61609320
C	-12.23624503	2.81065562	0.5986467400000001
C	-12.25093685	1.43414802	0.5983898700000001
C	-13.47055462	0.681065	0.5982016400000001
C	-12.25174061	-1.42057856	0.5980017000000001
C	-13.47137367	-0.66726785	0.5980046800000001
C	-12.23749037	-2.7978834	0.5978764700000001
C	-9.77388009	7.07103162	0.59977312
C	-9.80373209	5.66855696	0.5994766800000001
C	-11.00669116	4.94157168	0.59915671
C	-9.79275412	2.8311796	0.5990426700000001
C	-11.02870975	3.54984486	0.59884009
C	-9.79501053	1.42137757	0.59877904
C	-11.01763033	0.70738734	0.5983120300000001
C	-9.79507954	-1.41062588	0.5981038500000001
C	-11.01815904	-0.69510721	0.59810616
C	-9.79383168	-2.82076075	0.5979150100000001
C	-11.03001292	-3.5386856	0.5978425300000001
C	-9.80719554	-5.66008432	0.5977161300000001
C	-11.00977395	-4.93023915	0.5977396400000001
C	-9.78085015	-7.06096341	0.5975525200000001
C	-7.31431879	11.33454366	0.6011965300000001
C	-7.35619775	9.90109415	0.6007486700000001
C	-8.54195238	9.19999912	0.6004704900000001
C	-7.34024132	7.07242776	0.6005729900000001
C	-8.57807936	7.78578877	0.6001408100000001
C	-7.34663499	5.66026742	0.6008212900000001
C	-8.56692048	4.95253984	0.5999623600000001
C	-7.34387874	2.82930945	0.6017883500000001
C	-8.57209984	3.54064132	0.5999913200000001
C	-7.34479164	1.41839374	0.60174886
C	-8.56898342	0.70981718	0.5995573100000001
C	-7.34526991	-1.41250719	0.5999467300000001
C	-8.56907937	-0.70082179	0.5989661900000001
C	-7.34533756	-2.8239675	0.5988443700000001
C	-8.57340387	-3.53329256	0.5979309
C	-7.35002141	-5.65553908	0.5977369400000001
C	-8.57011219	-4.94533049	0.59778642
C	-7.34638203	-7.06801498	0.5976846100000001
C	-8.58379374	-7.77989947	0.5975540200000001
C	-7.36308295	-9.89680555	0.5973106200000001
C	-8.55052023	-9.19224454	0.5972906400000001
C	-7.32362219	-11.32887312	0.5969292400000001
C	-4.88460388	11.32629524	0.601195
C	-6.14527517	12.00976699	0.6014074300000001
C	-4.89659979	9.89524192	0.6011018300000001
C	-6.11241839	9.19324712	0.6008793800000001
C	-4.89189123	7.06998498	0.6022653900000001
C	-6.12012782	7.77765692	0.6010817600000001
C	-4.89638276	5.65538435	0.60372137
C	-6.11790217	4.94977876	0.60270584
C	-4.89517454	2.82776614	0.6070691300000001
C	-6.12056993	3.53685666	0.6038970000000001
C	-4.89550887	1.41459542	0.6079839300000001
C	-6.11940139	0.70814408	0.60450155
C	-4.89597058	-1.41284927	0.6055908000000001
C	-6.12002971	-0.70429144	0.6032354100000001
C	-4.89626875	-2.82634054	0.6025083600000001
C	-6.121604	-3.5339613	0.5993710900000001
C	-4.89849717	-5.65471512	0.5981423100000001
C	-6.12106353	-4.9467227	0.59815605
C	-4.89667076	-7.0697749	0.5977186900000001
C	-6.12537909	-7.77666832	0.5976895400000001
C	-4.90120644	-9.89524735	0.5976449300000001
C	-6.12044294	-9.19108714	0.59760988
C	-4.8935555	-11.32411999	0.5973464300000001
C	-6.1544239	-12.00461082	0.5969440300000001
C	-2.44239474	11.32316937	0.60120996
C	-3.68389361	12.0017385	0.6013215600000001
C	-2.44597826	9.89439795	0.6014174800000001
C	-3.66734015	9.19165328	0.6014933700000001
C	-2.44481428	7.06847556	0.6039982100000001
C	-3.67114764	7.77433111	0.6024130200000001
C	-2.44732865	5.65358786	0.6061619100000001
C	-3.67057017	4.94759925	0.6061432200000001
C	-2.44726216	2.82522607	0.6097191900000001
C	-3.67192343	3.53406188	0.6078828100000001
C	-2.44767522	1.41214987	0.6129005700000001
C	-3.67106429	0.70610445	0.6111869900000001
C	-2.44768582	-1.41421147	0.6122362400000001
C	-3.67165463	-0.70635556	0.6105393900000001
C	-2.44822492	-2.82718501	0.60739041
C	-3.67272299	-3.53435439	0.6028931500000001
C	-2.44900663	-5.65612024	0.59920976
C	-3.67313665	-4.94821374	0.5995981300000001
C	-2.44811816	-7.07084492	0.5980044600000001
C	-3.67504166	-7.77532795	0.5977876100000001
C	-2.44978957	-9.89690704	0.5978818100000001
C	-3.67311643	-9.19295981	0.5978125000000001
C	-2.44892962	-11.32443754	0.5976650000000001
C	-3.68986242	-12.00069846	0.5973472000000001
C	0.00338215	11.32279402	0.6011781700000001
C	-1.22655891	12.00127935	0.6012396000000001
C	0.00204417	9.89431765	0.6014831700000001
C	-1.22056589	9.19135067	0.6018501600000001
C	0.00223487	7.0672943	0.6051170100000001
C	-1.22258328	7.7729868	0.6034850800000001
C	0.00120574	5.65229538	0.6088563200000001
C	-1.22255655	4.94623369	0.6087052100000001
C	8.295E-5	2.8237542	0.6161532800000001
C	-1.22386502	3.53174823	0.6109318000000001
C	-0.00127948	1.41075307	0.6182837700000001
C	-1.22414752	0.70444477	0.6167190300000001
C	-0.00124544	-1.41542264	0.6146468800000001
C	-1.22463179	-0.70800624	0.61609051
C	-0.00145335	-2.82839904	0.6091025400000001
C	-1.22460206	-3.53521098	0.60596614
C	-1.7537E-4	-5.65643636	0.6000470900000001
C	-1.22468159	-4.9496521	0.6012143600000001
C	-1.6171E-4	-7.07172002	0.5985030800000001
C	-1.22412801	-7.77671861	0.59809277
C	4.0146E-4	-9.8982212	0.5981274000000001
C	-1.22384629	-9.19545414	0.59802518
C	2.7132E-4	-11.32656293	0.5979388300000001
C	-1.22813273	-12.00212219	0.59766852
C	2.44904995	11.32098029	0.6011353
C	1.23006159	11.99949997	0.6012481100000001
C	2.45014795	9.8933231	0.6011187800000001
C	1.22539106	9.19131805	0.6016754000000001
C	2.44783081	7.06632316	0.6033332900000001
C	1.22540081	7.77275053	0.6033008000000001
C	2.44807916	5.65184655	0.6061478000000001
C	1.22453206	4.94509743	0.6104896900000001
C	2.4467065	2.82368875	0.6121696200000001
C	1.22310998	3.5308873	0.6145090500000001
C	2.44545999	1.41082672	0.6130678600000001
C	1.22241762	0.70365137	0.6170971300000001
C	2.44592723	-1.41633036	0.6090905400000001
C	1.22179675	-0.70918162	0.6146726600000001
C	2.44597097	-2.82933973	0.6053949000000001
C	1.2229305	-3.53583661	0.6052990300000001
C	2.44842188	-5.65650761	0.59981521
C	1.2232915	-4.94984194	0.60131542
C	2.44700459	-7.07149414	0.5988246100000001
C	1.22517697	-7.77747898	0.5984875100000001
C	2.45011599	-9.89750323	0.5984030400000001
C	1.22359848	-9.19577005	0.5983141200000001
C	2.44760533	-11.32616889	0.5982168200000001
C	1.23129776	-12.00404995	0.5979639800000001
C	4.89083729	11.32109353	0.6013560600000001
C	3.68847975	11.99820633	0.6014091100000001
C	4.8991883	9.89240073	0.6009664700000001
C	3.67228114	9.18905542	0.6009847400000001
C	4.89368587	7.06581695	0.60104533
C	3.67345896	7.77164099	0.6014546800000001
C	4.89539152	5.65117228	0.6016509300000001
C	3.67114963	4.94403602	0.60461746
C	4.89394824	2.8235295	0.6033685500000001
C	3.67088907	3.53081013	0.6065913900000001
C	4.89368106	1.41062157	0.60358551
C	3.6697653	0.70342899	0.6076061
C	4.89473059	-1.41595502	0.60213729
C	3.66932438	-0.70909468	0.6062170900000001
C	4.89453368	-2.82899928	0.6010371600000001
C	3.67159949	-3.53619791	0.6017866800000001
C	4.89811385	-5.65525784	0.59937879
C	3.67119576	-4.94942976	0.6001073000000001
C	4.89475637	-7.07000162	0.5990385000000001
C	3.67433679	-7.77597545	0.5987867700000001
C	4.90183288	-9.8953265	0.5986844000000001
C	3.67122363	-9.19349295	0.5986176000000001
C	4.89114558	-11.32627326	0.5984861300000001
C	3.69060363	-12.00290959	0.5982514400000001
C	7.31945242	11.32646617	0.6018013200000001
C	6.15092633	12.00212186	0.6017678900000001
C	7.35898757	9.89487806	0.60142057
C	6.11725317	9.18805888	0.6009551700000001
C	7.34177153	7.06585347	0.6007177000000001
C	6.12126395	7.77371325	0.6006739500000001
C	7.34584324	5.65355152	0.6004751600000001
C	6.11744262	4.94415504	0.6007860600000001
C	7.34174969	2.82303544	0.6002349000000001
C	6.11826065	3.53190577	0.6009644300000001
C	7.34239869	1.4124309	0.6001258700000001
C	6.11789863	0.70357631	0.6009733
C	7.34366523	-1.41664417	0.5998945000000001
C	6.1178024	-0.70823357	0.60068001
C	7.34340795	-2.82728845	0.5998176100000001
C	6.12082914	-3.53624794	0.5998310800000001
C	7.34965518	-5.65719227	0.59950115
C	6.11961606	-4.94886508	0.5995380900000001
C	7.34421208	-7.06933958	0.5993167500000001
C	6.1242918	-7.77598793	0.5990789100000001
C	7.36320877	-9.89721274	0.5989349300000001
C	6.11772222	-9.19179679	0.59890474
C	7.32305918	-11.3306422	0.5987113700000001
C	6.15410136	-12.00683112	0.5984996900000001
C	8.54618429	9.19109876	0.60156496
C	9.77518982	7.06112732	0.6014655900000001
C	8.57828301	7.77903227	0.6012187600000001
C	9.80215145	5.66043138	0.6012084100000001
C	8.56601618	4.94446374	0.6006523800000001
C	9.79032178	2.82339611	0.6007757100000001
C	8.56908679	3.53304859	0.6004167300000001
C	9.79208919	1.41427272	0.6006066500000001
C	8.56695565	0.70329697	0.6001183500000001
C	9.79389822	-1.4165823	0.6003580300000001
C	8.56719575	-0.7069536	0.60005322
C	9.7926797	-2.82619029	0.6002211100000001
C	8.57254624	-3.53668856	0.59990054
C	9.80698956	-5.66301787	0.5998202000000001
C	8.56942618	-4.94829459	0.59975553
C	9.77881082	-7.06517573	0.59959594
C	8.58332469	-7.78083909	0.5993547200000001
C	8.5485775	-9.19493141	0.5991464400000001
C	11.00529549	4.93258075	0.6014988800000001
C	12.23341705	2.80327046	0.601558
C	11.02576378	3.54168911	0.6013142600000001
C	12.24886374	1.42695326	0.6013784600000001
C	11.01569337	0.70096488	0.6009560100000001
C	12.24976091	-1.42683195	0.6009447600000001
C	11.01577183	-0.70123977	0.6007784800000001
C	12.23600058	-2.8031892	0.6006975000000001
C	11.02935714	-3.54355196	0.6003545200000001
C	11.00921771	-4.9349898	0.6001120200000001
C	13.46913296	0.67489811	0.6015223700000001
C	13.46958018	-0.67410892	0.6013022100000001
H	-13.16990907	3.35502373	0.5987733800000001
H	-14.40036445	1.23003767	0.59816533
H	-14.40011445	-1.21897644	0.59776722
H	-13.17226072	-3.34057696	0.5977116800000001
H	-10.70879159	7.61372598	0.5998332100000001
H	-11.94221407	5.4835373	0.5992857400000001
H	-11.94649728	-5.4704229	0.5975787100000001
H	-10.71739915	-7.60072957	0.5973328200000001
H	-8.25699821	11.86298729	0.6014261200000001
H	-9.47957172	9.73819341	0.6006032400000001
H	-9.48861481	-9.72952661	0.5969913600000001
H	-8.26649408	-11.85610992	0.5965806100000001
H	-6.1292493	13.090669	0.6018016700000001
H	-6.14172127	-13.08482483	0.5966169700000001
H	-3.67820714	13.08335379	0.6015686100000001
H	-3.68696273	-13.08153224	0.5970731300000001
H	-1.22710448	13.08227929	0.6013458500000001
H	-1.22893995	-13.08282442	0.5974518900000001
H	1.22757548	13.08037578	0.6014421200000001
H	1.23197981	-13.08481756	0.59777681
H	3.68647626	13.07890412	0.6017248500000001
H	3.69049742	-13.08437102	0.5980682700000001
H	8.26207652	11.85405799	0.6020540400000001
H	6.1363079	13.08231241	0.6020161600000001
H	8.26770451	-11.85656052	0.5986917500000001
H	6.14112513	-13.0877566	0.5983072500000001
H	9.48417647	9.72779591	0.6019072100000001
H	10.71133517	7.60167828	0.6018314600000001
H	10.7155106	-7.60512405	0.5996004600000001
H	9.48698972	-9.73199026	0.5991373500000001
H	11.94011109	5.4750179	0.6018310000000001
H	13.16638307	3.34816063	0.6018337000000001
H	13.16992039	-3.34729486	0.6007546600000001
H	11.94530018	-5.47580068	0.60014308
H	14.39783378	1.22594809	0.6017754000000001
H	14.39887677	-1.22440116	0.6013767900000001
C	-0.49027397	-2.00726996	7.6307645
C	0.42566675495701395	-2.6814520145292513	8.19664755
C	1.738866764957014	-2.6173900345292513	7.765563719999999
C	2.0860533649570137	-1.6975254245292515	6.7915361999999995
C	1.1287396149570141	-0.8778060845292515	6.230648309999999
C	-0.20716208504298603	-0.9576928645292515	6.629710470000001
C	-1.067885965042986	1.0246661254707485	5.382574440000001
C	-0.35697185504298606	3.467612935470749	4.847289290000001
C	-1.4250881650429859	3.256077265470749	4.07822903
S	0.21514519495701398	2.162749535470749	5.832878280000001
S	-2.150097105042986	1.6690817554707484	4.1319225799999995
C	-1.2253370150429859	-0.1996128645292515	5.910907010000001
H	-1.5616690250429859	-1.9524285145292517	7.96880597
H	0.15532101495701398	-3.3676584345292513	8.982175739999999
H	2.4861173649570136	-3.2793768845292512	8.17953855
H	3.1133234649570136	-1.6160950745292515	6.472576760000001
H	1.409970484957014	-0.20176446452925148	5.4395744399999995
H	0.18404135495701396	4.388279185470748	4.92152108
H	-1.866502505042986	3.981744625470749	3.42393156
H	-2.156461705042986	-0.7140090845292515	5.705213130000001
