272
  -514.61609320
C	-12.23624503	2.81065562	0.69864674
C	-12.25093685	1.43414802	0.6983898700000001
C	-13.47055462	0.681065	0.6982016400000001
C	-12.25174061	-1.42057856	0.6980017000000001
C	-13.47137367	-0.66726785	0.69800468
C	-12.23749037	-2.7978834	0.6978764700000001
C	-9.77388009	7.07103162	0.69977312
C	-9.80373209	5.66855696	0.6994766800000001
C	-11.00669116	4.94157168	0.69915671
C	-9.79275412	2.8311796	0.6990426700000001
C	-11.02870975	3.54984486	0.69884009
C	-9.79501053	1.42137757	0.69877904
C	-11.01763033	0.70738734	0.6983120300000001
C	-9.79507954	-1.41062588	0.6981038500000001
C	-11.01815904	-0.69510721	0.69810616
C	-9.79383168	-2.82076075	0.6979150100000001
C	-11.03001292	-3.5386856	0.6978425300000001
C	-9.80719554	-5.66008432	0.6977161300000001
C	-11.00977395	-4.93023915	0.6977396400000001
C	-9.78085015	-7.06096341	0.6975525200000001
C	-7.31431879	11.33454366	0.70119653
C	-7.35619775	9.90109415	0.7007486700000001
C	-8.54195238	9.19999912	0.7004704900000001
C	-7.34024132	7.07242776	0.7005729900000001
C	-8.57807936	7.78578877	0.7001408100000001
C	-7.34663499	5.66026742	0.70082129
C	-8.56692048	4.95253984	0.6999623600000001
C	-7.34387874	2.82930945	0.7017883500000001
C	-8.57209984	3.54064132	0.6999913200000001
C	-7.34479164	1.41839374	0.70174886
C	-8.56898342	0.70981718	0.6995573100000001
C	-7.34526991	-1.41250719	0.6999467300000001
C	-8.56907937	-0.70082179	0.69896619
C	-7.34533756	-2.8239675	0.6988443700000001
C	-8.57340387	-3.53329256	0.6979309
C	-7.35002141	-5.65553908	0.6977369400000001
C	-8.57011219	-4.94533049	0.69778642
C	-7.34638203	-7.06801498	0.69768461
C	-8.58379374	-7.77989947	0.6975540200000001
C	-7.36308295	-9.89680555	0.6973106200000001
C	-8.55052023	-9.19224454	0.6972906400000001
C	-7.32362219	-11.32887312	0.6969292400000001
C	-4.88460388	11.32629524	0.701195
C	-6.14527517	12.00976699	0.70140743
C	-4.89659979	9.89524192	0.70110183
C	-6.11241839	9.19324712	0.70087938
C	-4.89189123	7.06998498	0.7022653900000001
C	-6.12012782	7.77765692	0.7010817600000001
C	-4.89638276	5.65538435	0.70372137
C	-6.11790217	4.94977876	0.70270584
C	-4.89517454	2.82776614	0.70706913
C	-6.12056993	3.53685666	0.7038970000000001
C	-4.89550887	1.41459542	0.70798393
C	-6.11940139	0.70814408	0.70450155
C	-4.89597058	-1.41284927	0.7055908000000001
C	-6.12002971	-0.70429144	0.7032354100000001
C	-4.89626875	-2.82634054	0.70250836
C	-6.121604	-3.5339613	0.6993710900000001
C	-4.89849717	-5.65471512	0.69814231
C	-6.12106353	-4.9467227	0.69815605
C	-4.89667076	-7.0697749	0.6977186900000001
C	-6.12537909	-7.77666832	0.69768954
C	-4.90120644	-9.89524735	0.69764493
C	-6.12044294	-9.19108714	0.69760988
C	-4.8935555	-11.32411999	0.6973464300000001
C	-6.1544239	-12.00461082	0.69694403
C	-2.44239474	11.32316937	0.70120996
C	-3.68389361	12.0017385	0.7013215600000001
C	-2.44597826	9.89439795	0.70141748
C	-3.66734015	9.19165328	0.7014933700000001
C	-2.44481428	7.06847556	0.7039982100000001
C	-3.67114764	7.77433111	0.70241302
C	-2.44732865	5.65358786	0.7061619100000001
C	-3.67057017	4.94759925	0.7061432200000001
C	-2.44726216	2.82522607	0.70971919
C	-3.67192343	3.53406188	0.7078828100000001
C	-2.44767522	1.41214987	0.7129005700000001
C	-3.67106429	0.70610445	0.7111869900000001
C	-2.44768582	-1.41421147	0.7122362400000001
C	-3.67165463	-0.70635556	0.7105393900000001
C	-2.44822492	-2.82718501	0.70739041
C	-3.67272299	-3.53435439	0.7028931500000001
C	-2.44900663	-5.65612024	0.69920976
C	-3.67313665	-4.94821374	0.69959813
C	-2.44811816	-7.07084492	0.69800446
C	-3.67504166	-7.77532795	0.6977876100000001
C	-2.44978957	-9.89690704	0.69788181
C	-3.67311643	-9.19295981	0.6978125000000001
C	-2.44892962	-11.32443754	0.6976650000000001
C	-3.68986242	-12.00069846	0.6973472000000001
C	0.00338215	11.32279402	0.70117817
C	-1.22655891	12.00127935	0.7012396000000001
C	0.00204417	9.89431765	0.70148317
C	-1.22056589	9.19135067	0.7018501600000001
C	0.00223487	7.0672943	0.70511701
C	-1.22258328	7.7729868	0.7034850800000001
C	0.00120574	5.65229538	0.7088563200000001
C	-1.22255655	4.94623369	0.7087052100000001
C	8.295E-5	2.8237542	0.7161532800000001
C	-1.22386502	3.53174823	0.7109318000000001
C	-0.00127948	1.41075307	0.7182837700000001
C	-1.22414752	0.70444477	0.71671903
C	-0.00124544	-1.41542264	0.7146468800000001
C	-1.22463179	-0.70800624	0.71609051
C	-0.00145335	-2.82839904	0.7091025400000001
C	-1.22460206	-3.53521098	0.70596614
C	-1.7537E-4	-5.65643636	0.7000470900000001
C	-1.22468159	-4.9496521	0.70121436
C	-1.6171E-4	-7.07172002	0.69850308
C	-1.22412801	-7.77671861	0.69809277
C	4.0146E-4	-9.8982212	0.6981274000000001
C	-1.22384629	-9.19545414	0.69802518
C	2.7132E-4	-11.32656293	0.6979388300000001
C	-1.22813273	-12.00212219	0.69766852
C	2.44904995	11.32098029	0.7011353
C	1.23006159	11.99949997	0.7012481100000001
C	2.45014795	9.8933231	0.70111878
C	1.22539106	9.19131805	0.7016754000000001
C	2.44783081	7.06632316	0.7033332900000001
C	1.22540081	7.77275053	0.7033008000000001
C	2.44807916	5.65184655	0.7061478000000001
C	1.22453206	4.94509743	0.7104896900000001
C	2.4467065	2.82368875	0.7121696200000001
C	1.22310998	3.5308873	0.7145090500000001
C	2.44545999	1.41082672	0.7130678600000001
C	1.22241762	0.70365137	0.7170971300000001
C	2.44592723	-1.41633036	0.70909054
C	1.22179675	-0.70918162	0.7146726600000001
C	2.44597097	-2.82933973	0.7053949
C	1.2229305	-3.53583661	0.70529903
C	2.44842188	-5.65650761	0.69981521
C	1.2232915	-4.94984194	0.70131542
C	2.44700459	-7.07149414	0.6988246100000001
C	1.22517697	-7.77747898	0.6984875100000001
C	2.45011599	-9.89750323	0.6984030400000001
C	1.22359848	-9.19577005	0.69831412
C	2.44760533	-11.32616889	0.6982168200000001
C	1.23129776	-12.00404995	0.69796398
C	4.89083729	11.32109353	0.7013560600000001
C	3.68847975	11.99820633	0.7014091100000001
C	4.8991883	9.89240073	0.7009664700000001
C	3.67228114	9.18905542	0.7009847400000001
C	4.89368587	7.06581695	0.70104533
C	3.67345896	7.77164099	0.7014546800000001
C	4.89539152	5.65117228	0.7016509300000001
C	3.67114963	4.94403602	0.70461746
C	4.89394824	2.8235295	0.7033685500000001
C	3.67088907	3.53081013	0.70659139
C	4.89368106	1.41062157	0.70358551
C	3.6697653	0.70342899	0.7076061
C	4.89473059	-1.41595502	0.70213729
C	3.66932438	-0.70909468	0.7062170900000001
C	4.89453368	-2.82899928	0.70103716
C	3.67159949	-3.53619791	0.7017866800000001
C	4.89811385	-5.65525784	0.69937879
C	3.67119576	-4.94942976	0.7001073000000001
C	4.89475637	-7.07000162	0.6990385000000001
C	3.67433679	-7.77597545	0.6987867700000001
C	4.90183288	-9.8953265	0.6986844000000001
C	3.67122363	-9.19349295	0.6986176000000001
C	4.89114558	-11.32627326	0.69848613
C	3.69060363	-12.00290959	0.6982514400000001
C	7.31945242	11.32646617	0.7018013200000001
C	6.15092633	12.00212186	0.7017678900000001
C	7.35898757	9.89487806	0.70142057
C	6.11725317	9.18805888	0.7009551700000001
C	7.34177153	7.06585347	0.7007177000000001
C	6.12126395	7.77371325	0.7006739500000001
C	7.34584324	5.65355152	0.7004751600000001
C	6.11744262	4.94415504	0.7007860600000001
C	7.34174969	2.82303544	0.7002349000000001
C	6.11826065	3.53190577	0.7009644300000001
C	7.34239869	1.4124309	0.70012587
C	6.11789863	0.70357631	0.7009733
C	7.34366523	-1.41664417	0.6998945000000001
C	6.1178024	-0.70823357	0.70068001
C	7.34340795	-2.82728845	0.6998176100000001
C	6.12082914	-3.53624794	0.69983108
C	7.34965518	-5.65719227	0.69950115
C	6.11961606	-4.94886508	0.6995380900000001
C	7.34421208	-7.06933958	0.69931675
C	6.1242918	-7.77598793	0.6990789100000001
C	7.36320877	-9.89721274	0.6989349300000001
C	6.11772222	-9.19179679	0.69890474
C	7.32305918	-11.3306422	0.69871137
C	6.15410136	-12.00683112	0.6984996900000001
C	8.54618429	9.19109876	0.70156496
C	9.77518982	7.06112732	0.7014655900000001
C	8.57828301	7.77903227	0.70121876
C	9.80215145	5.66043138	0.7012084100000001
C	8.56601618	4.94446374	0.7006523800000001
C	9.79032178	2.82339611	0.70077571
C	8.56908679	3.53304859	0.70041673
C	9.79208919	1.41427272	0.7006066500000001
C	8.56695565	0.70329697	0.7001183500000001
C	9.79389822	-1.4165823	0.7003580300000001
C	8.56719575	-0.7069536	0.70005322
C	9.7926797	-2.82619029	0.7002211100000001
C	8.57254624	-3.53668856	0.69990054
C	9.80698956	-5.66301787	0.6998202000000001
C	8.56942618	-4.94829459	0.69975553
C	9.77881082	-7.06517573	0.69959594
C	8.58332469	-7.78083909	0.6993547200000001
C	8.5485775	-9.19493141	0.69914644
C	11.00529549	4.93258075	0.70149888
C	12.23341705	2.80327046	0.701558
C	11.02576378	3.54168911	0.7013142600000001
C	12.24886374	1.42695326	0.70137846
C	11.01569337	0.70096488	0.7009560100000001
C	12.24976091	-1.42683195	0.7009447600000001
C	11.01577183	-0.70123977	0.7007784800000001
C	12.23600058	-2.8031892	0.7006975000000001
C	11.02935714	-3.54355196	0.7003545200000001
C	11.00921771	-4.9349898	0.7001120200000001
C	13.46913296	0.67489811	0.7015223700000001
C	13.46958018	-0.67410892	0.70130221
H	-13.16990907	3.35502373	0.6987733800000001
H	-14.40036445	1.23003767	0.69816533
H	-14.40011445	-1.21897644	0.69776722
H	-13.17226072	-3.34057696	0.6977116800000001
H	-10.70879159	7.61372598	0.6998332100000001
H	-11.94221407	5.4835373	0.6992857400000001
H	-11.94649728	-5.4704229	0.69757871
H	-10.71739915	-7.60072957	0.6973328200000001
H	-8.25699821	11.86298729	0.70142612
H	-9.47957172	9.73819341	0.7006032400000001
H	-9.48861481	-9.72952661	0.6969913600000001
H	-8.26649408	-11.85610992	0.69658061
H	-6.1292493	13.090669	0.70180167
H	-6.14172127	-13.08482483	0.6966169700000001
H	-3.67820714	13.08335379	0.70156861
H	-3.68696273	-13.08153224	0.69707313
H	-1.22710448	13.08227929	0.70134585
H	-1.22893995	-13.08282442	0.6974518900000001
H	1.22757548	13.08037578	0.7014421200000001
H	1.23197981	-13.08481756	0.69777681
H	3.68647626	13.07890412	0.7017248500000001
H	3.69049742	-13.08437102	0.69806827
H	8.26207652	11.85405799	0.70205404
H	6.1363079	13.08231241	0.7020161600000001
H	8.26770451	-11.85656052	0.6986917500000001
H	6.14112513	-13.0877566	0.69830725
H	9.48417647	9.72779591	0.7019072100000001
H	10.71133517	7.60167828	0.7018314600000001
H	10.7155106	-7.60512405	0.6996004600000001
H	9.48698972	-9.73199026	0.6991373500000001
H	11.94011109	5.4750179	0.7018310000000001
H	13.16638307	3.34816063	0.7018337000000001
H	13.16992039	-3.34729486	0.7007546600000001
H	11.94530018	-5.47580068	0.70014308
H	14.39783378	1.22594809	0.7017754
H	14.39887677	-1.22440116	0.7013767900000001
C	-0.49027397	-2.00726996	7.7307645
C	0.42566675495701395	-2.6814520145292513	8.29664755
C	1.738866764957014	-2.6173900345292513	7.86556372
C	2.0860533649570137	-1.6975254245292515	6.8915362
C	1.1287396149570141	-0.8778060845292515	6.33064831
C	-0.20716208504298603	-0.9576928645292515	6.7297104700000006
C	-1.067885965042986	1.0246661254707485	5.4825744400000005
C	-0.35697185504298606	3.467612935470749	4.9472892900000005
C	-1.4250881650429859	3.256077265470749	4.17822903
S	0.21514519495701398	2.162749535470749	5.932878280000001
S	-2.150097105042986	1.6690817554707484	4.23192258
C	-1.2253370150429859	-0.1996128645292515	6.01090701
H	-1.5616690250429859	-1.9524285145292517	8.06880597
H	0.15532101495701398	-3.3676584345292513	9.082175739999998
H	2.4861173649570136	-3.2793768845292512	8.27953855
H	3.1133234649570136	-1.6160950745292515	6.5725767600000005
H	1.409970484957014	-0.20176446452925148	5.53957444
H	0.18404135495701396	4.388279185470748	5.02152108
H	-1.866502505042986	3.981744625470749	3.5239315600000003
H	-2.156461705042986	-0.7140090845292515	5.80521313
