272
  -514.61609320
C	-12.23624503	2.81065562	0.79864674
C	-12.25093685	1.43414802	0.7983898700000001
C	-13.47055462	0.681065	0.79820164
C	-12.25174061	-1.42057856	0.7980017
C	-13.47137367	-0.66726785	0.79800468
C	-12.23749037	-2.7978834	0.7978764700000001
C	-9.77388009	7.07103162	0.79977312
C	-9.80373209	5.66855696	0.79947668
C	-11.00669116	4.94157168	0.79915671
C	-9.79275412	2.8311796	0.7990426700000001
C	-11.02870975	3.54984486	0.79884009
C	-9.79501053	1.42137757	0.79877904
C	-11.01763033	0.70738734	0.7983120300000001
C	-9.79507954	-1.41062588	0.7981038500000001
C	-11.01815904	-0.69510721	0.79810616
C	-9.79383168	-2.82076075	0.7979150100000001
C	-11.03001292	-3.5386856	0.79784253
C	-9.80719554	-5.66008432	0.7977161300000001
C	-11.00977395	-4.93023915	0.7977396400000001
C	-9.78085015	-7.06096341	0.7975525200000001
C	-7.31431879	11.33454366	0.80119653
C	-7.35619775	9.90109415	0.80074867
C	-8.54195238	9.19999912	0.80047049
C	-7.34024132	7.07242776	0.80057299
C	-8.57807936	7.78578877	0.80014081
C	-7.34663499	5.66026742	0.80082129
C	-8.56692048	4.95253984	0.7999623600000001
C	-7.34387874	2.82930945	0.80178835
C	-8.57209984	3.54064132	0.7999913200000001
C	-7.34479164	1.41839374	0.80174886
C	-8.56898342	0.70981718	0.7995573100000001
C	-7.34526991	-1.41250719	0.79994673
C	-8.56907937	-0.70082179	0.79896619
C	-7.34533756	-2.8239675	0.7988443700000001
C	-8.57340387	-3.53329256	0.7979309
C	-7.35002141	-5.65553908	0.7977369400000001
C	-8.57011219	-4.94533049	0.79778642
C	-7.34638203	-7.06801498	0.79768461
C	-8.58379374	-7.77989947	0.7975540200000001
C	-7.36308295	-9.89680555	0.7973106200000001
C	-8.55052023	-9.19224454	0.79729064
C	-7.32362219	-11.32887312	0.7969292400000001
C	-4.88460388	11.32629524	0.801195
C	-6.14527517	12.00976699	0.80140743
C	-4.89659979	9.89524192	0.80110183
C	-6.11241839	9.19324712	0.80087938
C	-4.89189123	7.06998498	0.8022653900000001
C	-6.12012782	7.77765692	0.8010817600000001
C	-4.89638276	5.65538435	0.80372137
C	-6.11790217	4.94977876	0.80270584
C	-4.89517454	2.82776614	0.80706913
C	-6.12056993	3.53685666	0.8038970000000001
C	-4.89550887	1.41459542	0.80798393
C	-6.11940139	0.70814408	0.80450155
C	-4.89597058	-1.41284927	0.8055908
C	-6.12002971	-0.70429144	0.8032354100000001
C	-4.89626875	-2.82634054	0.80250836
C	-6.121604	-3.5339613	0.7993710900000001
C	-4.89849717	-5.65471512	0.79814231
C	-6.12106353	-4.9467227	0.79815605
C	-4.89667076	-7.0697749	0.7977186900000001
C	-6.12537909	-7.77666832	0.79768954
C	-4.90120644	-9.89524735	0.79764493
C	-6.12044294	-9.19108714	0.79760988
C	-4.8935555	-11.32411999	0.79734643
C	-6.1544239	-12.00461082	0.79694403
C	-2.44239474	11.32316937	0.80120996
C	-3.68389361	12.0017385	0.8013215600000001
C	-2.44597826	9.89439795	0.80141748
C	-3.66734015	9.19165328	0.8014933700000001
C	-2.44481428	7.06847556	0.80399821
C	-3.67114764	7.77433111	0.80241302
C	-2.44732865	5.65358786	0.80616191
C	-3.67057017	4.94759925	0.80614322
C	-2.44726216	2.82522607	0.80971919
C	-3.67192343	3.53406188	0.8078828100000001
C	-2.44767522	1.41214987	0.81290057
C	-3.67106429	0.70610445	0.81118699
C	-2.44768582	-1.41421147	0.81223624
C	-3.67165463	-0.70635556	0.8105393900000001
C	-2.44822492	-2.82718501	0.80739041
C	-3.67272299	-3.53435439	0.80289315
C	-2.44900663	-5.65612024	0.79920976
C	-3.67313665	-4.94821374	0.79959813
C	-2.44811816	-7.07084492	0.79800446
C	-3.67504166	-7.77532795	0.7977876100000001
C	-2.44978957	-9.89690704	0.79788181
C	-3.67311643	-9.19295981	0.7978125
C	-2.44892962	-11.32443754	0.7976650000000001
C	-3.68986242	-12.00069846	0.7973472
C	0.00338215	11.32279402	0.80117817
C	-1.22655891	12.00127935	0.8012396
C	0.00204417	9.89431765	0.80148317
C	-1.22056589	9.19135067	0.8018501600000001
C	0.00223487	7.0672943	0.80511701
C	-1.22258328	7.7729868	0.8034850800000001
C	0.00120574	5.65229538	0.8088563200000001
C	-1.22255655	4.94623369	0.8087052100000001
C	8.295E-5	2.8237542	0.8161532800000001
C	-1.22386502	3.53174823	0.8109318000000001
C	-0.00127948	1.41075307	0.8182837700000001
C	-1.22414752	0.70444477	0.81671903
C	-0.00124544	-1.41542264	0.8146468800000001
C	-1.22463179	-0.70800624	0.81609051
C	-0.00145335	-2.82839904	0.80910254
C	-1.22460206	-3.53521098	0.80596614
C	-1.7537E-4	-5.65643636	0.8000470900000001
C	-1.22468159	-4.9496521	0.80121436
C	-1.6171E-4	-7.07172002	0.79850308
C	-1.22412801	-7.77671861	0.79809277
C	4.0146E-4	-9.8982212	0.7981274
C	-1.22384629	-9.19545414	0.79802518
C	2.7132E-4	-11.32656293	0.7979388300000001
C	-1.22813273	-12.00212219	0.79766852
C	2.44904995	11.32098029	0.8011353
C	1.23006159	11.99949997	0.8012481100000001
C	2.45014795	9.8933231	0.80111878
C	1.22539106	9.19131805	0.8016754
C	2.44783081	7.06632316	0.8033332900000001
C	1.22540081	7.77275053	0.8033008
C	2.44807916	5.65184655	0.8061478000000001
C	1.22453206	4.94509743	0.81048969
C	2.4467065	2.82368875	0.81216962
C	1.22310998	3.5308873	0.8145090500000001
C	2.44545999	1.41082672	0.8130678600000001
C	1.22241762	0.70365137	0.8170971300000001
C	2.44592723	-1.41633036	0.80909054
C	1.22179675	-0.70918162	0.81467266
C	2.44597097	-2.82933973	0.8053949
C	1.2229305	-3.53583661	0.80529903
C	2.44842188	-5.65650761	0.79981521
C	1.2232915	-4.94984194	0.80131542
C	2.44700459	-7.07149414	0.79882461
C	1.22517697	-7.77747898	0.7984875100000001
C	2.45011599	-9.89750323	0.7984030400000001
C	1.22359848	-9.19577005	0.79831412
C	2.44760533	-11.32616889	0.79821682
C	1.23129776	-12.00404995	0.79796398
C	4.89083729	11.32109353	0.80135606
C	3.68847975	11.99820633	0.80140911
C	4.8991883	9.89240073	0.8009664700000001
C	3.67228114	9.18905542	0.8009847400000001
C	4.89368587	7.06581695	0.80104533
C	3.67345896	7.77164099	0.8014546800000001
C	4.89539152	5.65117228	0.8016509300000001
C	3.67114963	4.94403602	0.80461746
C	4.89394824	2.8235295	0.8033685500000001
C	3.67088907	3.53081013	0.80659139
C	4.89368106	1.41062157	0.80358551
C	3.6697653	0.70342899	0.8076061
C	4.89473059	-1.41595502	0.80213729
C	3.66932438	-0.70909468	0.8062170900000001
C	4.89453368	-2.82899928	0.80103716
C	3.67159949	-3.53619791	0.8017866800000001
C	4.89811385	-5.65525784	0.79937879
C	3.67119576	-4.94942976	0.8001073000000001
C	4.89475637	-7.07000162	0.7990385000000001
C	3.67433679	-7.77597545	0.7987867700000001
C	4.90183288	-9.8953265	0.7986844000000001
C	3.67122363	-9.19349295	0.7986176
C	4.89114558	-11.32627326	0.79848613
C	3.69060363	-12.00290959	0.79825144
C	7.31945242	11.32646617	0.80180132
C	6.15092633	12.00212186	0.80176789
C	7.35898757	9.89487806	0.80142057
C	6.11725317	9.18805888	0.80095517
C	7.34177153	7.06585347	0.8007177000000001
C	6.12126395	7.77371325	0.8006739500000001
C	7.34584324	5.65355152	0.8004751600000001
C	6.11744262	4.94415504	0.8007860600000001
C	7.34174969	2.82303544	0.8002349000000001
C	6.11826065	3.53190577	0.8009644300000001
C	7.34239869	1.4124309	0.80012587
C	6.11789863	0.70357631	0.8009733
C	7.34366523	-1.41664417	0.7998945000000001
C	6.1178024	-0.70823357	0.80068001
C	7.34340795	-2.82728845	0.7998176100000001
C	6.12082914	-3.53624794	0.79983108
C	7.34965518	-5.65719227	0.79950115
C	6.11961606	-4.94886508	0.7995380900000001
C	7.34421208	-7.06933958	0.79931675
C	6.1242918	-7.77598793	0.7990789100000001
C	7.36320877	-9.89721274	0.79893493
C	6.11772222	-9.19179679	0.79890474
C	7.32305918	-11.3306422	0.79871137
C	6.15410136	-12.00683112	0.7984996900000001
C	8.54618429	9.19109876	0.80156496
C	9.77518982	7.06112732	0.8014655900000001
C	8.57828301	7.77903227	0.80121876
C	9.80215145	5.66043138	0.8012084100000001
C	8.56601618	4.94446374	0.80065238
C	9.79032178	2.82339611	0.80077571
C	8.56908679	3.53304859	0.80041673
C	9.79208919	1.41427272	0.8006066500000001
C	8.56695565	0.70329697	0.8001183500000001
C	9.79389822	-1.4165823	0.80035803
C	8.56719575	-0.7069536	0.80005322
C	9.7926797	-2.82619029	0.8002211100000001
C	8.57254624	-3.53668856	0.79990054
C	9.80698956	-5.66301787	0.7998202000000001
C	8.56942618	-4.94829459	0.79975553
C	9.77881082	-7.06517573	0.79959594
C	8.58332469	-7.78083909	0.7993547200000001
C	8.5485775	-9.19493141	0.79914644
C	11.00529549	4.93258075	0.80149888
C	12.23341705	2.80327046	0.801558
C	11.02576378	3.54168911	0.8013142600000001
C	12.24886374	1.42695326	0.80137846
C	11.01569337	0.70096488	0.80095601
C	12.24976091	-1.42683195	0.80094476
C	11.01577183	-0.70123977	0.8007784800000001
C	12.23600058	-2.8031892	0.8006975000000001
C	11.02935714	-3.54355196	0.8003545200000001
C	11.00921771	-4.9349898	0.80011202
C	13.46913296	0.67489811	0.80152237
C	13.46958018	-0.67410892	0.80130221
H	-13.16990907	3.35502373	0.7987733800000001
H	-14.40036445	1.23003767	0.79816533
H	-14.40011445	-1.21897644	0.79776722
H	-13.17226072	-3.34057696	0.79771168
H	-10.70879159	7.61372598	0.7998332100000001
H	-11.94221407	5.4835373	0.7992857400000001
H	-11.94649728	-5.4704229	0.79757871
H	-10.71739915	-7.60072957	0.79733282
H	-8.25699821	11.86298729	0.80142612
H	-9.47957172	9.73819341	0.80060324
H	-9.48861481	-9.72952661	0.79699136
H	-8.26649408	-11.85610992	0.79658061
H	-6.1292493	13.090669	0.80180167
H	-6.14172127	-13.08482483	0.7966169700000001
H	-3.67820714	13.08335379	0.80156861
H	-3.68696273	-13.08153224	0.79707313
H	-1.22710448	13.08227929	0.80134585
H	-1.22893995	-13.08282442	0.79745189
H	1.22757548	13.08037578	0.80144212
H	1.23197981	-13.08481756	0.79777681
H	3.68647626	13.07890412	0.80172485
H	3.69049742	-13.08437102	0.79806827
H	8.26207652	11.85405799	0.80205404
H	6.1363079	13.08231241	0.8020161600000001
H	8.26770451	-11.85656052	0.79869175
H	6.14112513	-13.0877566	0.79830725
H	9.48417647	9.72779591	0.8019072100000001
H	10.71133517	7.60167828	0.80183146
H	10.7155106	-7.60512405	0.7996004600000001
H	9.48698972	-9.73199026	0.7991373500000001
H	11.94011109	5.4750179	0.8018310000000001
H	13.16638307	3.34816063	0.8018337000000001
H	13.16992039	-3.34729486	0.8007546600000001
H	11.94530018	-5.47580068	0.80014308
H	14.39783378	1.22594809	0.8017754
H	14.39887677	-1.22440116	0.8013767900000001
C	-0.49027397	-2.00726996	7.8307645
C	0.42566675495701395	-2.6814520145292513	8.39664755
C	1.738866764957014	-2.6173900345292513	7.96556372
C	2.0860533649570137	-1.6975254245292515	6.9915362
C	1.1287396149570141	-0.8778060845292515	6.43064831
C	-0.20716208504298603	-0.9576928645292515	6.82971047
C	-1.067885965042986	1.0246661254707485	5.58257444
C	-0.35697185504298606	3.467612935470749	5.04728929
C	-1.4250881650429859	3.256077265470749	4.27822903
S	0.21514519495701398	2.162749535470749	6.03287828
S	-2.150097105042986	1.6690817554707484	4.33192258
C	-1.2253370150429859	-0.1996128645292515	6.11090701
H	-1.5616690250429859	-1.9524285145292517	8.168805970000001
H	0.15532101495701398	-3.3676584345292513	9.18217574
H	2.4861173649570136	-3.2793768845292512	8.37953855
H	3.1133234649570136	-1.6160950745292515	6.67257676
H	1.409970484957014	-0.20176446452925148	5.63957444
H	0.18404135495701396	4.388279185470748	5.12152108
H	-1.866502505042986	3.981744625470749	3.62393156
H	-2.156461705042986	-0.7140090845292515	5.90521313
