40
modified coordinates (angle = 20 degrees)
C -0.365283 -2.536374 7.977615
C 0.449705 -3.635523 7.977615
C 1.769922 -3.469262 7.977615
C 2.262862 -2.192129 7.977615
C 1.452288 -1.087287 7.977615
C 0.113327 -1.234090 7.977615
C -0.676538 1.177708 7.977615
C 0.007342 3.573840 7.977615
C -1.266586 3.678856 7.977615
S 0.739295 2.009420 7.977615
S -2.052173 2.238075 7.977615
C -0.806364 -0.148739 7.977615
H -1.394251 -2.671757 7.977615
H 0.057489 -4.625821 7.977615
H 2.408035 -4.328170 7.977615
H 3.287880 -2.059055 7.977615
H 1.859371 -0.106768 7.977615
H 0.617461 4.381141 7.977615
H -1.843107 4.585343 7.977615
H -1.789203 -0.443580 7.977615
C 0.513552 -2.447746 13.955230
C 1.655321 -3.201866 13.955230
C 2.839055 -2.594091 13.955230
C 2.865462 -1.225383 13.955230
C 1.725893 -0.464404 13.955230
C 0.517891 -1.060305 13.955230
C -1.049223 0.935894 13.955230
C -1.226111 3.421422 13.955230
C -2.459130 3.084396 13.955230
S -0.003237 2.201691 13.955230
S -2.704564 1.461818 13.955230
C -0.717548 -0.354962 13.955230
H -0.407058 -2.926893 13.955230
H 1.625461 -4.266588 13.955230
H 3.732449 -3.182953 13.955230
H 3.783149 -0.749758 13.955230
H 1.773069 0.596213 13.955230
H -0.928900 4.388710 13.955230
H -3.310919 3.739033 13.955230
H -1.540273 -0.968173 13.955230
