40
modified coordinates (angle = 40 degrees)
C -0.365283 -2.536374 7.977615
C 0.449705 -3.635523 7.977615
C 1.769922 -3.469262 7.977615
C 2.262862 -2.192129 7.977615
C 1.452288 -1.087287 7.977615
C 0.113327 -1.234090 7.977615
C -0.676538 1.177708 7.977615
C 0.007342 3.573840 7.977615
C -1.266586 3.678856 7.977615
S 0.739295 2.009420 7.977615
S -2.052173 2.238075 7.977615
C -0.806364 -0.148739 7.977615
H -1.394251 -2.671757 7.977615
H 0.057489 -4.625821 7.977615
H 2.408035 -4.328170 7.977615
H 3.287880 -2.059055 7.977615
H 1.859371 -0.106768 7.977615
H 0.617461 4.381141 7.977615
H -1.843107 4.585343 7.977615
H -1.789203 -0.443580 7.977615
C 1.309074 -2.063884 13.955230
C 2.639910 -2.382017 13.955230
C 3.544385 -1.406035 13.955230
C 3.101074 -0.110838 13.955230
C 1.769959 0.214493 13.955230
C 0.838619 -0.758632 13.955230
C -1.316727 0.581197 13.955230
C -2.333048 2.856330 13.955230
C -3.376437 2.117912 13.955230
S -0.766750 2.128405 13.955230
S -3.052115 0.509244 13.955230
C -0.563556 -0.518371 13.955230
H 0.607861 -2.829002 13.955230
H 2.976007 -3.392741 13.955230
H 4.585303 -1.653825 13.955230
H 3.800745 0.649971 13.955230
H 1.451537 1.227282 13.955230
H -2.384593 3.866935 13.955230
H -4.400756 2.441740 13.955230
H -1.126934 -1.375989 13.955230
