40
modified coordinates (angle = 50 degrees)
C -0.365283 -2.536374 7.977615
C 0.449705 -3.635523 7.977615
C 1.769922 -3.469262 7.977615
C 2.262862 -2.192129 7.977615
C 1.452288 -1.087287 7.977615
C 0.113327 -1.234090 7.977615
C -0.676538 1.177708 7.977615
C 0.007342 3.573840 7.977615
C -1.266586 3.678856 7.977615
S 0.739295 2.009420 7.977615
S -2.052173 2.238075 7.977615
C -0.806364 -0.148739 7.977615
H -1.394251 -2.671757 7.977615
H 0.057489 -4.625821 7.977615
H 2.408035 -4.328170 7.977615
H 3.287880 -2.059055 7.977615
H 1.859371 -0.106768 7.977615
H 0.617461 4.381141 7.977615
H -1.843107 4.585343 7.977615
H -1.789203 -0.443580 7.977615
C 1.644884 -1.774444 13.955230
C 3.010745 -1.856646 13.955230
C 3.732001 -0.738431 13.955230
C 3.070516 0.460109 13.955230
C 1.703131 0.549352 13.955230
C 0.954921 -0.570715 13.955230
C -1.400338 0.374487 13.955230
C -2.796292 2.438574 13.955230
C -3.695605 1.530191 13.955230
S -1.127387 1.993692 13.955230
S -3.096868 0.002280 13.955230
C -0.467672 -0.577589 13.955230
H 1.087186 -2.649701 13.955230
H 3.517246 -2.793652 13.955230
H 4.800134 -0.801703 13.955230
H 3.627445 1.330856 13.955230
H 1.213678 1.491461 13.955230
H -3.022544 3.424875 13.955230
H -4.760594 1.671229 13.955230
H -0.873567 -1.520008 13.955230
