40
modified coordinates (angle = 80 degrees)
C -0.365283 -2.536374 7.977615
C 0.449705 -3.635523 7.977615
C 1.769922 -3.469262 7.977615
C 2.262862 -2.192129 7.977615
C 1.452288 -1.087287 7.977615
C 0.113327 -1.234090 7.977615
C -0.676538 1.177708 7.977615
C 0.007342 3.573840 7.977615
C -1.266586 3.678856 7.977615
S 0.739295 2.009420 7.977615
S -2.052173 2.238075 7.977615
C -0.806364 -0.148739 7.977615
H -1.394251 -2.671757 7.977615
H 0.057489 -4.625821 7.977615
H 2.408035 -4.328170 7.977615
H 3.287880 -2.059055 7.977615
H 1.859371 -0.106768 7.977615
H 0.617461 4.381141 7.977615
H -1.843107 4.585343 7.977615
H -1.789203 -0.443580 7.977615
C 2.287996 -0.625680 13.955230
C 3.511967 -0.013939 13.955230
C 3.577485 1.315092 13.955230
C 2.405353 2.022315 13.955230
C 1.176541 1.415909 13.955230
C 1.088606 0.071798 13.955230
C -1.423710 -0.287263 13.955230
C -3.664685 0.802311 13.955230
C -3.989321 -0.434027 13.955230
S -1.996930 1.251486 13.955230
S -2.706844 -1.457868 13.955230
C -0.139959 -0.645452 13.955230
H 2.242643 -1.662525 13.955230
H 4.419113 -0.572160 13.955230
H 4.534152 1.794363 13.955230
H 2.452293 3.054869 13.955230
H 0.281608 1.987073 13.955230
H -4.353775 1.543348 13.955230
H -4.982148 -0.844380 13.955230
H -0.020265 -1.664558 13.955230
