40
modified coordinates (angle = 90 degrees)
C -0.365283 -2.536374 7.977615
C 0.449705 -3.635523 7.977615
C 1.769922 -3.469262 7.977615
C 2.262862 -2.192129 7.977615
C 1.452288 -1.087287 7.977615
C 0.113327 -1.234090 7.977615
C -0.676538 1.177708 7.977615
C 0.007342 3.573840 7.977615
C -1.266586 3.678856 7.977615
S 0.739295 2.009420 7.977615
S -2.052173 2.238075 7.977615
C -0.806364 -0.148739 7.977615
H -1.394251 -2.671757 7.977615
H 0.057489 -4.625821 7.977615
H 2.408035 -4.328170 7.977615
H 3.287880 -2.059055 7.977615
H 1.859371 -0.106768 7.977615
H 0.617461 4.381141 7.977615
H -1.843107 4.585343 7.977615
H -1.789203 -0.443580 7.977615
C 2.359192 -0.188101 13.955230
C 3.458341 0.626887 13.955230
C 3.292080 1.947104 13.955230
C 2.014947 2.440044 13.955230
C 0.910105 1.629470 13.955230
C 1.056908 0.290509 13.955230
C -1.354890 -0.499356 13.955230
C -3.751022 0.184524 13.955230
C -3.856038 -1.089404 13.955230
S -2.186602 0.916477 13.955230
S -2.415257 -1.874991 13.955230
C -0.028443 -0.629182 13.955230
H 2.494575 -1.217069 13.955230
H 4.448639 0.234671 13.955230
H 4.150988 2.585217 13.955230
H 1.881873 3.465062 13.955230
H -0.070414 2.036553 13.955230
H -4.558323 0.794643 13.955230
H -4.762525 -1.665925 13.955230
H 0.266398 -1.612021 13.955230
