40
modified coordinates (angle = 120 degrees)
C -0.365283 -2.536374 7.977615
C 0.449705 -3.635523 7.977615
C 1.769922 -3.469262 7.977615
C 2.262862 -2.192129 7.977615
C 1.452288 -1.087287 7.977615
C 0.113327 -1.234090 7.977615
C -0.676538 1.177708 7.977615
C 0.007342 3.573840 7.977615
C -1.266586 3.678856 7.977615
S 0.739295 2.009420 7.977615
S -2.052173 2.238075 7.977615
C -0.806364 -0.148739 7.977615
H -1.394251 -2.671757 7.977615
H 0.057489 -4.625821 7.977615
H 2.408035 -4.328170 7.977615
H 3.287880 -2.059055 7.977615
H 1.859371 -0.106768 7.977615
H 0.617461 4.381141 7.977615
H -1.843107 4.585343 7.977615
H -1.789203 -0.443580 7.977615
C 2.113433 1.105287 13.955230
C 2.657830 2.360661 13.955230
C 1.853735 3.420872 13.955230
C 0.501236 3.209204 13.955230
C -0.050299 1.954806 13.955230
C 0.746317 0.868633 13.955230
C -0.947429 -1.021309 13.955230
C -3.364480 -1.627118 13.955230
C -2.818462 -2.782880 13.955230
S -2.375629 -0.211018 13.955230
S -1.177916 -2.742827 13.955230
C 0.266221 -0.470518 13.955230
H 2.745162 0.281866 13.955230
H 3.711561 2.516141 13.955230
H 2.278515 4.402948 13.955230
H -0.126519 4.030359 13.955230
H -1.102994 1.817090 13.955230
H -4.368683 -1.502390 13.955230
H -3.315243 -3.735405 13.955230
H 1.012980 -1.174261 13.955230
