40
modified coordinates (angle = 130 degrees)
C -0.365283 -2.536374 7.977615
C 0.449705 -3.635523 7.977615
C 1.769922 -3.469262 7.977615
C 2.262862 -2.192129 7.977615
C 1.452288 -1.087287 7.977615
C 0.113327 -1.234090 7.977615
C -0.676538 1.177708 7.977615
C 0.007342 3.573840 7.977615
C -1.266586 3.678856 7.977615
S 0.739295 2.009420 7.977615
S -2.052173 2.238075 7.977615
C -0.806364 -0.148739 7.977615
H -1.394251 -2.671757 7.977615
H 0.057489 -4.625821 7.977615
H 2.408035 -4.328170 7.977615
H 3.287880 -2.059055 7.977615
H 1.859371 -0.106768 7.977615
H 0.617461 4.381141 7.977615
H -1.843107 4.585343 7.977615
H -1.789203 -0.443580 7.977615
C 1.886702 1.486256 13.955230
C 2.204835 2.817092 13.955230
C 1.228853 3.721567 13.955230
C -0.066344 3.278255 13.955230
C -0.391675 1.947141 13.955230
C 0.581450 1.015800 13.955230
C -0.758379 -1.139545 13.955230
C -3.033512 -2.155867 13.955230
C -2.295094 -3.199255 13.955230
S -2.305587 -0.589568 13.955230
S -0.686426 -2.874933 13.955230
C 0.341189 -0.386374 13.955230
H 2.651820 0.785043 13.955230
H 3.215559 3.153189 13.955230
H 1.476643 4.762485 13.955230
H -0.827153 3.977926 13.955230
H -1.404464 1.628719 13.955230
H -4.044117 -2.207411 13.955230
H -2.618922 -4.223574 13.955230
H 1.198807 -0.949752 13.955230
