40
modified coordinates (angle = 160 degrees)
C -0.365283 -2.536374 7.977615
C 0.449705 -3.635523 7.977615
C 1.769922 -3.469262 7.977615
C 2.262862 -2.192129 7.977615
C 1.452288 -1.087287 7.977615
C 0.113327 -1.234090 7.977615
C -0.676538 1.177708 7.977615
C 0.007342 3.573840 7.977615
C -1.266586 3.678856 7.977615
S 0.739295 2.009420 7.977615
S -2.052173 2.238075 7.977615
C -0.806364 -0.148739 7.977615
H -1.394251 -2.671757 7.977615
H 0.057489 -4.625821 7.977615
H 2.408035 -4.328170 7.977615
H 3.287880 -2.059055 7.977615
H 1.859371 -0.106768 7.977615
H 0.617461 4.381141 7.977615
H -1.843107 4.585343 7.977615
H -1.789203 -0.443580 7.977615
C 0.867066 2.319078 13.955230
C 0.477159 3.630682 13.955230
C -0.820303 3.925989 13.955230
C -1.720321 2.894472 13.955230
C -1.336509 1.579027 13.955230
C -0.028087 1.259025 13.955230
C -0.110740 -1.277473 13.955230
C -1.572903 -3.295200 13.955230
C -0.411720 -3.829592 13.955230
S -1.725650 -1.574784 13.955230
S 0.819267 -2.744387 13.955230
C 0.464928 -0.075424 13.955230
H 1.880284 2.094368 13.955230
H 1.184424 4.427112 13.955230
H -1.126170 4.951346 13.955230
H -2.729037 3.120000 13.955230
H -2.054399 0.796871 13.955230
H -2.422340 -3.845142 13.955230
H -0.180004 -4.878593 13.955230
H 1.489336 -0.134515 13.955230
