40
modified coordinates (angle = 170 degrees)
C -0.365283 -2.536374 7.977615
C 0.449705 -3.635523 7.977615
C 1.769922 -3.469262 7.977615
C 2.262862 -2.192129 7.977615
C 1.452288 -1.087287 7.977615
C 0.113327 -1.234090 7.977615
C -0.676538 1.177708 7.977615
C 0.007342 3.573840 7.977615
C -1.266586 3.678856 7.977615
S 0.739295 2.009420 7.977615
S -2.052173 2.238075 7.977615
C -0.806364 -0.148739 7.977615
H -1.394251 -2.671757 7.977615
H 0.057489 -4.625821 7.977615
H 2.408035 -4.328170 7.977615
H 3.287880 -2.059055 7.977615
H 1.859371 -0.106768 7.977615
H 0.617461 4.381141 7.977615
H -1.843107 4.585343 7.977615
H -1.789203 -0.443580 7.977615
C 0.448498 2.465177 13.955230
C -0.163243 3.689149 13.955230
C -1.492274 3.754667 13.955230
C -2.199497 2.582535 13.955230
C -1.593091 1.353723 13.955230
C -0.248980 1.265788 13.955230
C 0.110081 -1.246528 13.955230
C -0.979493 -3.487503 13.955230
C 0.256845 -3.812139 13.955230
S -1.428667 -1.819748 13.955230
S 1.280686 -2.529662 13.955230
C 0.468270 0.037223 13.955230
H 1.485343 2.419825 13.955230
H 0.394978 4.596295 13.955230
H -1.971545 4.711334 13.955230
H -3.232050 2.629475 13.955230
H -2.164255 0.458790 13.955230
H -1.720529 -4.176593 13.955230
H 0.667198 -4.804966 13.955230
H 1.487376 0.156916 13.955230
