40
180mod
C        4.6724631372     -5.4012299334      7.4238958280                 
C        5.3782634492     -6.2947209820      6.6650456254                 
C        6.5216049101     -5.9127163439      6.1016111506                 
C        6.9485034728     -4.6283061833      6.3068103218                 
C        6.2465257969     -3.7287106261      7.0655337434                 
C        5.0869515558     -4.0956361380      7.6444300454                 
C        4.4029084000     -1.9643622243      8.8404286978                 
C        4.9951658533      0.4042157025      9.3386356125                 
C        3.8919118424      0.2850439446      9.9731035698                 
S        5.6290557459     -0.9406868928      8.4596670443                 
S        3.2115735433     -1.2031906183      9.8494325993                 
C        4.2904757859     -3.2330162357      8.4477553722                 
H        3.7813507092     -5.7044122306      7.8610489328                 
H        5.0385944293     -7.2923695913      6.5106250022                 
H        7.0742269788     -6.6107021039      5.5080322752                 
H        7.8361951004     -4.3279691262      5.8707233853                 
H        6.5990700164     -2.7377088643      7.2096245465                 
H        5.5235444069      1.2671669887      9.3280866551                 
H        3.3926300104      1.0382721922     10.5540166476                 
H        3.4393122438     -3.6781515152      8.8086970887                 
C        7.9870711231     -2.3406301390     13.8466899320                 
C        7.2812708111     -1.4471390904     14.6055401345                 
C        6.1379293502     -1.8291437285     15.1689746094                 
C        5.7110307875     -3.1135538891     14.9637754382                 
C        6.4130084634     -4.0131494463     14.2050520165                 
C        7.5725827045     -3.6462239344     13.6261557145                 
C        8.2566258603     -5.7774978482     12.4301570622                 
C        7.6643684069     -8.1460757749     11.9319501475                 
C        8.7676224179     -8.0269040170     11.2974821902                 
S        7.0304785143     -6.8011731796     12.8109187156                 
S        9.4479607170     -6.5386694541     11.4211531606                 
C        8.3690584744     -4.5088438367     12.8228303877                 
H        8.8781835511     -2.0374478419     13.4095368271                 
H        7.6209398310     -0.4494904812     14.7599607578                 
H        5.5853072815     -1.1311579685     15.7625534847                 
H        4.8233391599     -3.4138909462     15.3998623746                 
H        6.0604642438     -5.0041512081     14.0609612134                 
H        7.1359898534     -9.0090270611     11.9424991048                 
H        9.2669042499     -8.7801322646     10.7165691124                 
H        9.2202220165     -4.0637085572     12.4618886712                 
