%nprocshared=32
%mem=32GB
%chk=oniom.chk
#p oniom(M062X/Def2SVP:PM6) empiricaldispersion=gd3 SCF=QC opt fchk

1

0 1 0 2 0 2
C	-1	5.3782634492	-6.294720982	6.6650456254	M
C	-1	6.5216049101	-5.9127163439	6.1016111506	H
C	-1	6.9485034728	-4.6283061833	6.3068103218	H
C	-1	6.2465257969	-3.7287106261	7.0655337434	H
C	-1	5.0869515558	-4.095636138	7.6444300454	M
C	-1	4.4029084	-1.9643622243	8.8404286978	M
C	-1	4.9951658533	0.4042157025	9.3386356125	M
C	-1	3.8919118424	0.2850439446	9.9731035698	M
S	-1	5.6290557459	-0.9406868928	8.4596670443	M
S	-1	3.2115735433	-1.2031906183	9.8494325993	M
C	-1	4.2904757859	-3.2330162357	8.4477553722	M
C	-1	5.3782634492	-6.294720982	6.6650456254	M
C	-1	6.5216049101	-5.9127163439	6.1016111506	M
C	-1	6.9485034728	-4.6283061833	6.3068103218	M
C	-1	6.2465257969	-3.7287106261	7.0655337434	H
C	-1	5.0869515558	-4.095636138	7.6444300454	H
C	-1	4.4029084	-1.9643622243	8.8404286978	H
C	-1	4.9951658533	0.4042157025	9.3386356125	M
C	-1	3.8919118424	0.2850439446	9.9731035698	M
S	-1	5.6290557459	-0.9406868928	8.4596670443	H
S	0	3.2115735433	-1.2031906183	9.8494325993	M
C	0	4.2904757859	-3.2330162357	8.4477553722	M
