%nprocshared=4 
%mem=1GB
%chk=nap.chk
# opt  

[No Title]

0 1 
 H          0.7484093720        3.9503703401        0.2725506145
 C          1.5474665189        3.2245159142        0.2418611477
 C          3.6278063950        1.3633126929        0.1780263685
 C          1.2787954460        1.9061112276        0.6034817464
 C          2.8083785176        3.6315920756       -0.1380965700
 C          3.8813867061        2.7170863049       -0.1623536618
 C          2.3223883417        0.9419154059        0.5467582311
 H          2.9880825932        4.6616459485       -0.4060944695
 C          4.6924731842        0.4352887470        0.1530130185
 C          6.8426887053       -1.4371912821        0.1321807654
 C          4.4704729471       -0.9238151040        0.4775080496
 C          6.0018674533        0.8520009423       -0.1919559700
 C          7.0465356190       -0.0950329151       -0.1915698154
 C          5.5523685701       -1.8324430837        0.4591726196
 H          8.0347889688        0.2516400249       -0.4533851207
 H          5.3442647708       -2.8593539540        0.7135181197
 C          5.1914194302        3.1118096060       -0.5125887842
 H          5.3708433436        4.1449573842       -0.7698831463
 C          6.2249941677        2.2071321817       -0.5232627291
 H          7.2223995813        2.5259956254       -0.7865125666
 C          2.1247725654       -0.4288473965        0.8435949027
 H          1.1368599843       -0.7825881849        1.0947453325
 C          3.1595545969       -1.3283207483        0.8093344419
 H          2.9780377304       -2.3666286437        1.0439671427
 C          8.0197766672       -2.3935748695        0.1153306195
 C          7.6195578357       -3.8219491058        0.4877966195
 H          7.2127334786       -3.8696602924        1.4955266997
 H          8.4994119245       -4.4587206107        0.4587111620
 H          6.8965692607       -4.2276688225       -0.2165778721
 C          9.0670812141       -1.8996366047        1.1255998960
 H          8.6411167547       -1.8556607549        2.1256489087
 H          9.4469215699       -0.9144063557        0.8698975860
 H          9.9073773293       -2.5877790754        1.1418478354
 C          8.6248889159       -2.4079574568       -1.2971223210
 H          9.0028200198       -1.4320600316       -1.5886986242
 H          7.8820186429       -2.7223409726       -2.0271295897
 H          9.4534549006       -3.1096082783       -1.3288749998
 C         -0.0994321902        1.5635501826        1.0866701122
 H         -0.5605508112        2.4804431264        1.4682842877
 H         -0.0319180062        0.8674080611        1.9282605678
 H          0.4361777999        0.9856639444       -1.5109169854
 C         -0.5868551817        0.7586905651       -1.2511151796
 C         -3.2453802383        0.1850386581       -0.6098037950
 C         -1.4287226944        0.2592679534       -2.2221138319
 C         -1.0257646107        0.9868800723        0.0498849119
 C         -2.3761407572        0.6929496848        0.3919181861
 C         -2.7750888844       -0.0358278183       -1.9296645410
 C         -4.5945228055       -0.1000566119       -0.3024112000
 C         -7.3203424765       -0.6614543044        0.3208856849
 C         -5.4697572191       -0.5981189080       -1.2990048388
 C         -5.0962401102        0.1114903329        1.0033317520
 C         -6.4501845909       -0.1747809879        1.2878563529
 C         -6.8125985232       -0.8665496567       -0.9623861988
 H         -6.7950862326       -0.0005234008        2.2944552055
 H         -7.4566892956       -1.2441541828       -1.7421635323
 C         -2.9047374211        0.8892203956        1.6910157500
 H         -2.2695402336        1.2692731980        2.4755569539
 C         -4.2149679095        0.6092856483        1.9864351723
 H         -4.5868133284        0.7725845349        2.9869484378
 C         -3.6617764626       -0.5360574418       -2.9089796414
 H         -3.2909558818       -0.6996794916       -3.9097357785
 C         -4.9725326022       -0.8090562687       -2.6045736211
 H         -5.6387174006       -1.1881747187       -3.3650071100
 C         -8.7778713219       -0.9717897382        0.6043776807
 C         -9.1643820396       -0.6937263287        2.0579726171
 H         -9.0303780336        0.3559405770        2.3099440641
 H         -8.5899256352       -1.3102383303        2.7458909893
 H        -10.2143755483       -0.9337045319        2.2009784849
 C         -9.0325747983       -2.4577764114        0.3070477704
 H        -10.0675600815       -2.6996949847        0.5308879038
 H         -8.3934453488       -3.0854801175        0.9243048082
 H         -8.8506922472       -2.7014041203       -0.7359909888
 C         -9.6525364528       -0.0991765003       -0.3093270100
 H         -9.4578047440        0.9559607890       -0.1298458368
 H        -10.7006956718       -0.2933578237       -0.1007528422
 H         -9.4767749642       -0.3074169707       -1.3610851510
 H         -1.0607673746        0.0962427376       -3.2238200155

 
