77
       -105.32634153
 H          0.8742350269        4.1833545659        0.2478500927
 C          1.6324698309        3.4147418863        0.2246028194
 C          3.6096768640        1.4428633574        0.1800523514
 C          1.2851465638        2.1092620573        0.5636528340
 C          2.9213654674        3.7555420973       -0.1271633660
 C          3.9427637950        2.7835835297       -0.1433467429
 C          2.2767166574        1.0905503020        0.5199222538
 H          3.1621611660        4.7768305481       -0.3804305553
 C          4.6225426585        0.4583817080        0.1683845331
 C          6.6687470629       -1.5268626777        0.1813606102
 C          4.3208610787       -0.8881414742        0.4803989147
 C          5.9588978664        0.8052630224       -0.1494596477
 C          6.9506871528       -0.1968901599       -0.1340398309
 C          5.3525844741       -1.8534609856        0.4798108713
 H          7.9609612813        0.0965926811       -0.3760356156
 H          5.0846030347       -2.8685404274        0.7254240674
 C          5.2784571523        3.1081965101       -0.4678589170
 H          5.5188808999        4.1317243194       -0.7135790675
 C          6.2610267290        2.1481651031       -0.4679177475
 H          7.2787783114        2.4137139803       -0.7117737769
 C          1.9988830546       -0.2685779814        0.8048147522
 H          0.9886018780       -0.5680253516        1.0369288995
 C          2.9838082606       -1.2226933487        0.7848802151
 H          2.7421436352       -2.2507091068        1.0104213136
 C          7.7931931168       -2.5448293333        0.1868892911
 C          8.8488162738       -2.1035877413        1.2127413102
 H          9.2893537142       -1.1439424275        0.9572760207
 H          9.6478627633       -2.8384878786        1.2491904192
 H          8.4083319879       -2.0274115407        2.2045404205
 C          8.4190378065       -2.5971273449       -1.2155233512
 H          8.8486123494       -1.6424549404       -1.5058305291
 H          7.6732128670       -2.8789787991       -1.9557095872
 H          9.2125915037       -3.3386621526       -1.2304868483
 C          7.3111533382       -3.9482037936        0.5577185269
 H          6.8840852782       -3.9689757392        1.5579734248
 H          8.1565243500       -4.6306189453        0.5475302145
 H          6.5807679661       -4.3190985897       -0.1580920082
 C         -0.1176647571        1.8263780729        1.0124896097
 H         -0.5780275548        2.7725232586        1.3168166709
 H         -0.0891744472        1.1862865627        1.8995313863
 H          0.4349700442        1.2835283265       -1.5866783086
 C         -0.5716603715        0.9974959391       -1.3210869818
 C         -3.1904631291        0.2727408353       -0.6699572824
 C         -1.3892530330        0.4497884180       -2.2896051448
 C         -1.0153886983        1.1987020474       -0.0196098433
 C         -2.3500946269        0.8361605827        0.3267981307
 C         -2.7119578337        0.0745117296       -1.9903743336
 C         -4.5195170841       -0.0903194904       -0.3570681001
 C         -7.2025611317       -0.8230651805        0.2740960636
 C         -5.3671914711       -0.6488688617       -1.3466668987
 C         -5.0283473518        0.1022475727        0.9479469841
 C         -6.3590858222       -0.2686894568        1.2349458497
 C         -6.6911746212       -1.0030763380       -1.0063214033
 H         -6.7172175819       -0.1087489761        2.2407425933
 H         -7.3077294958       -1.4254194363       -1.7836010906
 C         -2.8877696988        1.0196687671        1.6230673304
 H         -2.2771773176        1.4512480619        2.4004155418
 C         -4.1791522198        0.6666459039        1.9239717764
 H         -4.5599472296        0.8218106513        2.9224132546
 C         -3.5721611646       -0.4825836053       -2.9638523708
 H         -3.1966279061       -0.6265725944       -3.9658993962
 C         -4.8621514253       -0.8346987707       -2.6522855972
 H         -5.5066225327       -1.2578055542       -3.4082015780
 C         -8.6213642157       -1.2020013363        0.6545376413
 C         -8.5666123619       -2.2408103866        1.7856558418
 H         -8.0905567101       -1.8452274006        2.6786397065
 H         -8.0192599800       -3.1248112489        1.4655367328
 H         -9.5760661924       -2.5417988632        2.0505689762
 C         -9.4029468758       -1.8002034490       -0.5162780717
 H        -10.4061398771       -2.0534050352       -0.1844946182
 H         -8.9366863559       -2.7137181617       -0.8787874876
 H         -9.4976377649       -1.0893907863       -1.3341721488
 C         -9.3546447218        0.0587011934        1.1380517763
 H         -8.8863712561        0.4889741499        2.0190564920
 H        -10.3797354582       -0.1936481218        1.3936028367
 H         -9.3733969341        0.8131288341        0.3545524289
 H         -1.0168255962        0.3104627687       -3.2932614973
