77
       -105.32503850
 H         -0.0989505391        2.6013599196       -1.4825599855
 C          0.7756718423        2.0405458682       -1.1881412979
 C          3.0527110490        0.6094372947       -0.4364420601
 C          1.0603331434        1.8981484041        0.1695868165
 C          1.5843454493        1.4958628671       -2.1600684385
 C          2.7350341512        0.7598621458       -1.8107187017
 C          2.2286070778        1.1895292407        0.5661422058
 H          1.3434711154        1.6310083726       -3.2035791863
 C          4.2068531466       -0.1204366821       -0.0736719245
 C          6.5108553130       -1.6296683323        0.6674224709
 C          4.5629835368       -0.2773426918        1.2867009434
 C          5.0304099708       -0.7058149215       -1.0668749603
 C          6.1623211455       -1.4475894641       -0.6715174965
 C          5.7086752043       -1.0295169586        1.6289530216
 H          6.7688753060       -1.8852892419       -1.4499651585
 H          5.9453556669       -1.1275549031        2.6762739896
 C          3.5770826723        0.1835069593       -2.7870019050
 H          3.3284094451        0.3153449563       -3.8293756314
 C          4.6924508442       -0.5319610513       -2.4276339750
 H          5.3250902049       -0.9686436486       -3.1857877575
 C          2.6259716322        1.0374694596        1.9174694230
 H          2.0436828108        1.4928617757        2.7031909195
 C          3.7501381479        0.3328086675        2.2653515414
 H          4.0242228760        0.2383067857        3.3054791129
 C          7.7283308047       -2.4651515836        1.0135870065
 C          7.9631996665       -2.5622046014        2.5217930276
 H          7.1211262700       -3.0328615444        3.0247044826
 H          8.1473206254       -1.5828825734        2.9578601597
 H          8.8409686613       -3.1746469684        2.7086825625
 C          8.9680310231       -1.8311281885        0.3646622834
 H          8.8945949903       -1.8091422782       -0.7190706581
 H          9.8497562911       -2.4082350776        0.6279899581
 H          9.1064778799       -0.8128168705        0.7212886013
 C          7.5178190651       -3.8839170095        0.4605242266
 H          8.3709323099       -4.5041646130        0.7198362315
 H          7.4178205520       -3.8880028081       -0.6213807061
 H          6.6249953981       -4.3325553945        0.8910268791
 C          0.1516795528        2.5460322240        1.1765026847
 H          0.5700472646        3.5312395507        1.4114167622
 H          0.1425396736        1.9731036517        2.1072041569
 H         -1.1598238484        4.8517071478        0.7296664054
 C         -1.7943712215        3.9938410359        0.5634897676
 C         -3.4616966930        1.7903497540        0.1471216451
 C         -3.1137434201        4.1957801298        0.2067883081
 C         -1.2678290236        2.7173691675        0.7213261323
 C         -2.1022489407        1.5842254984        0.4988508315
 C         -3.9781772675        3.1035049668       -0.0008757231
 C         -4.3182983803        0.6844804753       -0.0496755196
 C         -6.0523072704       -1.5474520166       -0.4227075117
 C         -5.6816164502        0.8789423520       -0.3865020602
 C         -3.8308093403       -0.6346086919        0.0941047735
 C         -4.7095302945       -1.7217544201       -0.0957582236
 C         -6.5182577664       -0.2446758796       -0.5650549539
 H         -4.3077141280       -2.7165183766        0.0242918314
 H         -7.5502708326       -0.0610676132       -0.8177552399
 C         -1.6389691356        0.2535291999        0.6258426742
 H         -0.6063138102        0.0723187809        0.8817474740
 C         -2.4715261226       -0.8179910756        0.4294661110
 H         -2.0916073893       -1.8230979998        0.5369007502
 C         -5.3380741997        3.2773611855       -0.3437835858
 H         -5.7211002262        4.2808381344       -0.4543166384
 C         -6.1669596179        2.1973049449       -0.5297062893
 H         -7.2046777511        2.3488024266       -0.7866935865
 C         -6.9398341456       -2.7645368203       -0.6053961036
 C         -6.9535183064       -3.5632961826        0.7071917060
 H         -5.9637550652       -3.9230808707        0.9749089094
 H         -7.6053767791       -4.4255357185        0.6003214174
 H         -7.3296759484       -2.9499233150        1.5229974445
 C         -6.3637141167       -3.6293378463       -1.7373316245
 H         -7.0038077841       -4.4924485738       -1.8957053723
 H         -5.3657272905       -3.9912031390       -1.5052761807
 H         -6.3186004988       -3.0628477541       -2.6649635129
 C         -8.3794391297       -2.3921218939       -0.9629266292
 H         -8.8437413314       -1.8027438990       -0.1754981729
 H         -8.9646056876       -3.2999931392       -1.0809948613
 H         -8.4263678174       -1.8466294974       -1.9028130450
 H         -3.4950991117        5.1992520830        0.0928632365
