77
       -105.32491063
 H         -0.2990134016        1.8883968643        0.7828456890
 C          0.7217148870        1.5568043890        0.6611110302
 C          3.3610215770        0.7052823951        0.3562988586
 C          1.0609217361        0.2630294846        1.0595809078
 C          1.6523749872        2.4231002793        0.1362077339
 C          2.9946398234        2.0218743488       -0.0234038189
 C          2.3965952945       -0.1910706092        0.8968308606
 H          1.3641526513        3.4227004270       -0.1515972212
 C          4.7032941560        0.2940243578        0.1942889860
 C          7.4111123830       -0.5444177597       -0.1337628765
 C          5.1075486245       -1.0121133999        0.5589668697
 C          5.6711649005        1.1836692026       -0.3343345179
 C          7.0017678796        0.7429706014       -0.4841872256
 C          6.4535420435       -1.4045328000        0.3867372079
 H          7.7167899547        1.4440379056       -0.8875688856
 H          6.7206058242       -2.4081148581        0.6766220442
 C          3.9733088449        2.8951558931       -0.5468957147
 H          3.6786667410        3.8953062544       -0.8272822157
 C          5.2763325050        2.4906720148       -0.6973335591
 H          6.0139835879        3.1707539599       -1.0961346559
 C          2.8337717177       -1.4923821890        1.2490856971
 H          2.1341922963       -2.2045738127        1.6586905561
 C          4.1363724178       -1.8886531628        1.0872763030
 H          4.4328579258       -2.8879422856        1.3693880816
 C          8.8601334701       -0.9452532805       -0.3326946450
 C          9.1346822878       -2.3865397140        0.0988284124
 H          8.9321234406       -2.5284593038        1.1580892918
 H         10.1832803059       -2.6168096184       -0.0683741561
 H          8.5463921808       -3.0931105548       -0.4826676253
 C          9.7499606215       -0.0077611029        0.4985809466
 H         10.7898353757       -0.3002556271        0.3846914131
 H          9.4899080812       -0.0710833742        1.5529774095
 H          9.6574125259        1.0276717295        0.1828810395
 C          9.2079289083       -0.8069161927       -1.8233959660
 H          8.5609990588       -1.4406387207       -2.4263153723
 H         10.2365635736       -1.1157990118       -1.9856189083
 H          9.1076331338        0.2174127468       -2.1714306951
 C         -0.0374045254       -0.5726166227        1.6588003408
 H         -0.4434041463       -0.0365614619        2.5168374581
 H          0.3423320338       -1.5271114685        2.0235943648
 H          0.2870282329       -1.9946781409       -0.5238869985
 C         -0.7313015337       -1.6405304345       -0.4586841903
 C         -3.3646886424       -0.7353175087       -0.2857726771
 C         -1.6299109548       -1.9920663927       -1.4390306053
 C         -1.1008057545       -0.8518150167        0.6317492828
 C         -2.4333182909       -0.3700518720        0.7265615664
 C         -2.9686633241       -1.5542644581       -1.3740389299
 C         -4.7033691362       -0.2878594543       -0.2166732065
 C         -7.4037810794        0.6231917822       -0.0733078792
 C         -5.6388150062       -0.6551468189       -1.2155345387
 C         -5.1363904017        0.5327028515        0.8517715931
 C         -6.4780882252        0.9717592753        0.9009873084
 C         -6.9666379812       -0.1918472378       -1.1184646286
 H         -6.7677911860        1.5953507770        1.7314905265
 H         -7.6569069593       -0.4907331345       -1.8928455092
 C         -2.8986526330        0.4547555694        1.7809745905
 H         -2.2243664947        0.7581293258        2.5669318064
 C         -4.1975064448        0.8896730185        1.8425814769
 H         -4.5161516109        1.5154077449        2.6629419082
 C         -3.9153098444       -1.9115772178       -2.3592530566
 H         -3.5985708990       -2.5389695199       -3.1788787151
 C         -5.2152295733       -1.4772879504       -2.2835128159
 H         -5.9283023159       -1.7613089872       -3.0428176331
 C         -8.8473838181        1.0869360487       -0.0441553000
 C         -9.7608248457       -0.1478087528        0.0096647541
 H         -9.5425625393       -0.7452680875        0.8921571522
 H         -9.6471491473       -0.7769563285       -0.8687403102
 H        -10.7979483416        0.1710014725        0.0605195302
 C         -9.1319370850        1.8895889142       -1.3235636418
 H        -10.1573824875        2.2473452922       -1.3062895638
 H         -9.0028537912        1.2878318638       -2.2189336351
 H         -8.4699738236        2.7505180837       -1.3886963950
 C         -9.1546788401        1.9729805820        1.1638962109
 H        -10.1972356046        2.2769725347        1.1290702277
 H         -8.5486960331        2.8764290386        1.1569382861
 H         -8.9997226299        1.4373384723        2.0978531527
 H         -1.3191601850       -2.6141145863       -2.2646181716
