77
       -105.32485927
 H         -0.3004217595        1.9150882189        0.8175815954
 C          0.7179462667        1.5792230879        0.6881304029
 C          3.3512028062        0.7168132873        0.3624963192
 C          1.0575797887        0.2880991561        1.0945301344
 C          1.6455033652        2.4379571048        0.1455501554
 C          2.9847345667        2.0311327013       -0.0249152176
 C          2.3899731717       -0.1716601493        0.9213394603
 H          1.3571907086        3.4358285942       -0.1481053955
 C          4.6903923353        0.2999268925        0.1898048885
 C          7.3921196276       -0.5495714137       -0.1590260961
 C          5.0945047093       -1.0042758862        0.5614903941
 C          5.6552766107        1.1819574146       -0.3567246972
 C          6.9830104610        0.7360477203       -0.5161725704
 C          6.4374372048       -1.4023162024        0.3786030208
 H          7.6960235814        1.4316712566       -0.9323363951
 H          6.7045466902       -2.4041680043        0.6743760866
 C          3.9603447545        2.8966732776       -0.5666512283
 H          3.6657191222        3.8951880364       -0.8528263218
 C          5.2604874603        2.4868572286       -0.7272533259
 H          5.9958588259        3.1610552247       -1.1400121851
 C          2.8269214773       -1.4711622876        1.2805410864
 H          2.1297546491       -2.1771422881        1.7047879708
 C          4.1263636192       -1.8731267727        1.1077837168
 H          4.4228093012       -2.8708529443        1.3954282102
 C          8.8380300665       -0.9561593044       -0.3685646082
 C          9.1122222328       -2.3954632143        0.0697397431
 H          8.9200904916       -2.5297435854        1.1319295517
 H         10.1582797043       -2.6303863203       -0.1066681060
 H          8.5156279325       -3.1038338214       -0.5010211180
 C          9.7377180677       -0.0159618057        0.4490088786
 H         10.7758404622       -0.3113744619        0.3269439350
 H          9.4874821877       -0.0728261694        1.5061472824
 H          9.6442693577        1.0178796088        0.1283826067
 C          9.1733230836       -0.8283778857       -1.8630180234
 H          9.0716637280        0.1937031631       -2.2172090404
 H          8.5203161038       -1.4651395174       -2.4561066009
 H         10.2000671003       -1.1399689185       -2.0319199084
 C         -0.0373110038       -0.5400989585        1.7103836587
 H         -0.4493073201        0.0125807900        2.5547173567
 H          0.3469795466       -1.4839606783        2.0972271635
 H          0.2982323170       -2.0204356489       -0.4322303355
 C         -0.7198076462       -1.6630257937       -0.3825596886
 C         -3.3522905005       -0.7485080177       -0.2508759060
 C         -1.6122888833       -2.0372177530       -1.3600962514
 C         -1.0951546123       -0.8465586294        0.6851739235
 C         -2.4275575173       -0.3608253145        0.7592210893
 C         -2.9502631165       -1.5945710523       -1.3159411704
 C         -4.6902910074       -0.2962735702       -0.2028544249
 C         -7.3888449663        0.6260554323       -0.1033772660
 C         -5.6188106597       -0.6845882720       -1.2002226555
 C         -5.1294710871        0.5504769930        0.8423892052
 C         -6.4701959769        0.9943829421        0.8703102220
 C         -6.9457449965       -0.2147365953       -1.1253599608
 H         -6.7647963731        1.6380476726        1.6836025510
 H         -7.6304153490       -0.5292836342       -1.8985079009
 C         -2.8992761255        0.4888785793        1.7907841021
 H         -2.2307526407        0.8081509726        2.5753526469
 C         -4.1975547331        0.9279274705        1.8321745150
 H         -4.5211473039        1.5729371426        2.6354986634
 C         -3.8902553306       -1.9731852593       -2.2995626006
 H         -3.5689860955       -2.6212516554       -3.1011367444
 C         -5.1893450322       -1.5333795737       -2.2447419009
 H         -5.8972610652       -1.8335081414       -3.0026712497
 C         -8.8305554723        1.0965185460       -0.0985324321
 C         -9.7512587570       -0.1319933365       -0.0304960419
 H         -9.5482708973       -0.7111516965        0.8676998952
 H         -9.6293284758       -0.7808723293       -0.8932920693
 H        -10.7872255291        0.1932182525       -0.0007669451
 C         -9.0965046460        1.8751807276       -1.3967450192
 H        -10.1199643180        2.2389673566       -1.3979284736
 H         -8.9609999176        1.2548034221       -2.2783657895
 H         -8.4288227630        2.7308863965       -1.4716830999
 C         -9.1464019009        2.0078011432        1.0883544182
 H         -9.0016007471        1.4907573088        2.0343512706
 H        -10.1877207755        2.3137953396        1.0376819664
 H         -8.5378356761        2.9093134894        1.0687769693
 H         -1.2971275026       -2.6803580651       -2.1676517011
