77
       -105.32481987
 H         -0.3061250326        1.8247347752        0.8477065594
 C          0.7180349065        1.5075099236        0.7166693136
 C          3.3677609057        0.6982687997        0.3883574594
 C          1.0623062012        0.1959440839        1.0371044035
 C          1.6488454480        2.4128455599        0.2565234265
 C          2.9941784049        2.0329128668        0.0873754213
 C          2.4054301002       -0.2378521240        0.8608846696
 H          1.3546925928        3.4261857484        0.0289029628
 C          4.7154065209        0.3087573750        0.2162047637
 C          7.4358231612       -0.4793634198       -0.1350646123
 C          5.1249781875       -1.0138952136        0.5037975364
 C          5.6831217207        1.2364930699       -0.2450586155
 C          7.0220031226        0.8197201368       -0.4096407189
 C          6.4755407594       -1.3791535560        0.3220488967
 H          7.7299341814        1.5526373223       -0.7622617158
 H          6.7537768366       -2.3967361483        0.5513097871
 C          3.9726346945        2.9441193599       -0.3700241549
 H          3.6730446300        3.9575362627       -0.5914439687
 C          5.2805583842        2.5595368523       -0.5301108265
 H          6.0168702149        3.2688807928       -0.8770406230
 C          2.8480066661       -1.5548373360        1.1356115443
 H          2.1495108059       -2.2969423990        1.4901146436
 C          4.1559858666       -1.9303227582        0.9653049817
 H          4.4575345689       -2.9430593495        1.1877990024
 C          8.8696961632       -0.9407544299       -0.3146838075
 C          9.4046619277       -1.4306846390        1.0398778593
 H          8.8398277317       -2.2785641628        1.4174445928
 H          9.3626746138       -0.6322673338        1.7775406919
 H         10.4400515468       -1.7402038850        0.9305703030
 C          9.7855382362        0.1732022212       -0.8244750337
 H          9.4643091758        0.5360402483       -1.7984122604
 H         10.7940405542       -0.2155745101       -0.9358452443
 H          9.8295866630        1.0028179966       -0.1223720804
 C          8.8907662941       -2.0928910603       -1.3316049427
 H          8.4846181457       -1.7659855019       -2.2864717803
 H          8.3168477396       -2.9490426802       -0.9878110658
 H          9.9149135511       -2.4183527567       -1.4896157215
 C         -0.0344305865       -0.6839536283        1.5728900130
 H         -0.4375310497       -0.2163493225        2.4714562204
 H          0.3458277772       -1.6639106074        1.8617104466
 H          0.2894831653       -1.9163308022       -0.7215357094
 C         -0.7308065760       -1.5756078031       -0.6234526070
 C         -3.3692574563       -0.7060672027       -0.3654723398
 C         -1.6314135778       -1.8504466285       -1.6261395697
 C         -1.1005943200       -0.8830523220        0.5304608946
 C         -2.4358527471       -0.4201936213        0.6702331617
 C         -2.9726419566       -1.4285454582       -1.5198487975
 C         -4.7103468257       -0.2745815069       -0.2543958453
 C         -7.4153325412        0.6049252531       -0.0262714849
 C         -5.6474597006       -0.5625366314       -1.2774257796
 C         -5.1440673408        0.4506543045        0.8806496862
 C         -6.4881879456        0.8754749913        0.9711516603
 C         -6.9772231509       -0.1161255274       -1.1379927203
 H         -6.7784755982        1.4250149182        1.8522157069
 H         -7.6681322802       -0.3512515378       -1.9335018792
 C         -2.9017842810        0.3107624233        1.7915032393
 H         -2.2255865802        0.5532458828        2.5967141468
 C         -4.2033083260        0.7295247971        1.8945011311
 H         -4.5224622961        1.2821617957        2.7655884867
 C         -3.9210803004       -1.7081736380       -2.5281780442
 H         -3.6038363329       -2.2626938772       -3.3985743060
 C         -5.2232127231       -1.2898585953       -2.4118901748
 H         -5.9376520434       -1.5139863347       -3.1897248643
 C         -8.8605644698        1.0589697613        0.0446908906
 C         -9.7720235938       -0.1765062910       -0.0192265620
 H         -9.5553460944       -0.8530769906        0.8046051662
 H         -9.6554076662       -0.7213879299       -0.9518605425
 H        -10.8098051946        0.1348156010        0.0580309448
 C         -9.1440191927        1.9776167936       -1.1546678161
 H        -10.1708882749        2.3285292595       -1.1076322376
 H         -9.0091862232        1.4628777334       -2.1019674074
 H         -8.4850836535        2.8431190120       -1.1360336468
 C         -9.1718934201        1.8273150347        1.3298515811
 H        -10.2165109400        2.1261365930        1.3242631364
 H         -8.5720972853        2.7316424924        1.4063500144
 H         -9.0118912940        1.2082859592        2.2098813712
 H         -1.3203660387       -2.3996509513       -2.5017646889
