77
       -105.32469456
 H         -0.3153110014        1.8687269459        0.9361585465
 C          0.7045299391        1.5454481431        0.7877371792
 C          3.3428527742        0.7207957490        0.4102520443
 C          1.0525911155        0.2392473325        1.1249140150
 C          1.6267072355        2.4388626725        0.2884589927
 C          2.9660822645        2.0507571993        0.0929763001
 C          2.3898685851       -0.2023484006        0.9252309128
 H          1.3302115696        3.4488031266        0.0490735741
 C          4.6843166619        0.3228766570        0.2111956563
 C          7.3917184570       -0.4827338787       -0.1961210729
 C          5.0968194260       -0.9954482221        0.5140309284
 C          5.6427201613        1.2376341341       -0.2933998535
 C          6.9753358965        0.8124433532       -0.4849158060
 C          6.4407323233       -1.3696795368        0.3035245980
 H          7.6762792296        1.5356042118       -0.8701231772
 H          6.7213161131       -2.3838431638        0.5447725146
 C          3.9354555516        2.9492637691       -0.4068997369
 H          3.6336969904        3.9594607427       -0.6397888980
 C          5.2374014798        2.5564882763       -0.5935563488
 H          5.9668106182        3.2560621393       -0.9733448034
 C          2.8356560266       -1.5146306035        1.2168899315
 H          2.1449265067       -2.2459432803        1.6072783356
 C          4.1374827006       -1.8984527938        1.0200407042
 H          4.4418032792       -2.9072383731        1.2563354743
 C          8.8184184541       -0.9535610188       -0.4057812566
 C          9.3860186535       -1.4301680651        0.9401149105
 H         10.4172393920       -1.7446712364        0.8080110209
 H          8.8284693930       -2.2717797288        1.3417176226
 H          9.3656026856       -0.6233385722        1.6694914249
 C          9.7263875112        0.1492936218       -0.9524453342
 H          9.7895980056        0.9885146352       -0.2633185580
 H          9.3842715462        0.4997078728       -1.9238039885
 H         10.7305985815       -0.2450949694       -1.0814420432
 C          8.8069572171       -2.1179166770       -1.4089972856
 H          8.3793471406       -1.7996979858       -2.3574126809
 H          8.2359872229       -2.9657913774       -1.0405852988
 H          9.8247645119       -2.4521193155       -1.5882645807
 C         -0.0351290520       -0.6298492029        1.6962450632
 H         -0.4531207595       -0.1269767256        2.5682071891
 H          0.3568486613       -1.5895801927        2.0326010191
 H          0.3092342220       -2.0136908881       -0.5090233117
 C         -0.7084269584       -1.6568842310       -0.4485316548
 C         -3.3400684584       -0.7444133182       -0.2894609927
 C         -1.5963952521       -1.9853069166       -1.4463826954
 C         -1.0881045006       -0.8888425585        0.6530809826
 C         -2.4199120821       -0.4038957314        0.7415591441
 C         -2.9338951918       -1.5427301773       -1.3892540271
 C         -4.6775881065       -0.2924067589       -0.2279879136
 C         -7.3759175489        0.6267785665       -0.0993642586
 C         -5.6016908435       -0.6343646706       -1.2462203339
 C         -5.1207587488        0.5075242323        0.8518722224
 C         -6.4612750016        0.9509002323        0.8936169738
 C         -6.9284850026       -0.1668924774       -1.1565523195
 H         -6.7590371365        1.5580585697        1.7333996272
 H         -7.6095596142       -0.4448941662       -1.9466927717
 C         -2.8953335869        0.4002307470        1.8074004136
 H         -2.2300271936        0.6834496641        2.6083772542
 C         -4.1931490586        0.8391724284        1.8619283815
 H         -4.5197945923        1.4483889083        2.6915313463
 C         -3.8693490115       -1.8750420709       -2.3937131593
 H         -3.5448901750       -2.4868744569       -3.2220332961
 C         -5.1680666231       -1.4360640092       -2.3256803150
 H         -5.8726219944       -1.7009329532       -3.0997121688
 C         -8.8177260720        1.0964903844       -0.0790892764
 C         -9.7385586426       -0.1337618203       -0.0741665756
 H         -9.5392720281       -0.7555209360        0.7959498045
 H         -9.6129626756       -0.7403992222       -0.9666612000
 H        -10.7747039225        0.1896510346       -0.0331939356
 C         -9.0775197943        1.9361570583       -1.3400430862
 H        -10.1012749341        2.2989526334       -1.3292334545
 H         -8.9367676563        1.3585948368       -2.2494905686
 H         -8.4101719301        2.7948526259       -1.3704657591
 C         -9.1396273169        1.9501666788        1.1483093346
 H         -8.9977375845        1.3889895238        2.0692786888
 H        -10.1812067903        2.2568295698        1.1080601970
 H         -8.5323888425        2.8524084837        1.1739613649
 H         -1.2781429509       -2.5923922328       -2.2802084241
