77
       -105.32467650
 H         -0.3337742223        1.4599626636        1.4967704769
 C          0.6883162637        1.1986651640        1.2651258017
 C          3.3323248586        0.5318925800        0.6753243431
 C          1.0794163033        1.1290378975       -0.0702197186
 C          1.5713030821        0.9617673571        2.2957164119
 C          2.9127224562        0.6287145814        2.0266100988
 C          2.4198402272        0.7759349665       -0.3892887362
 H          1.2422811680        1.0368278405        3.3210493637
 C          4.6758484176        0.1920332099        0.3979528146
 C          7.3870465063       -0.5008814273       -0.1626268644
 C          5.1303596762        0.0837732179       -0.9367895283
 C          5.5943137184       -0.0446028798        1.4516944831
 C          6.9298002070       -0.3855158832        1.1457542144
 C          6.4752736070       -0.2604899431       -1.1880965752
 H          7.5996561118       -0.5581782839        1.9728888654
 H          6.7884947032       -0.3348904251       -2.2185401024
 C          3.8427621859        0.3917957704        3.0638070535
 H          3.5087938407        0.4736414480        4.0873112727
 C          5.1471056478        0.0663589178        2.7863987343
 H          5.8462212255       -0.1084932747        3.5903548890
 C          2.9071615443        0.6582094034       -1.7138713409
 H          2.2479504746        0.8333741847       -2.5499868585
 C          4.2107748518        0.3254238895       -1.9797405087
 H          4.5474222128        0.2472997480       -3.0028049844
 C          8.8169206739       -0.8752953929       -0.5037429805
 C          9.6783118688       -1.0983260726        0.7403561515
 H          9.2943758872       -1.9153082606        1.3474120937
 H          9.7448116109       -0.1955590544        1.3434846759
 H         10.6867978469       -1.3630874595        0.4346093768
 C          9.4415353066        0.2575008687       -1.3328413281
 H         10.4747356668        0.0125528307       -1.5614858730
 H          9.4271486242        1.1909738021       -0.7744535916
 H          8.9180277540        0.4101503504       -2.2725765181
 C          8.8000734521       -2.1745893123       -1.3246110835
 H          8.3317406108       -2.9770168182       -0.7585854521
 H          9.8191701732       -2.4700913832       -1.5567263998
 H          8.2640565403       -2.0557108041       -2.2622509295
 C          0.0330322964        1.4464694677       -1.1043122699
 H          0.4603444063        1.4802137436       -2.1063534040
 H         -0.3709053101        2.4359595309       -0.8906990123
 H          0.3427483449       -1.0712599018       -1.7847112685
 C         -0.6805524488       -0.8879160669       -1.4917429851
 C         -3.3262629400       -0.4147040260       -0.7436255224
 C         -1.5902970084       -1.9181821753       -1.5464919123
 C         -1.0445370125        0.3964300144       -1.0849121044
 C         -2.3838254825        0.6502855102       -0.6866335441
 C         -2.9351713217       -1.7064873386       -1.1797158416
 C         -4.6710064188       -0.1964166792       -0.3680286349
 C         -7.3830508446        0.2494759013        0.3990665218
 C         -5.6169008289       -1.2495833760       -0.4298915781
 C         -5.0996359270        1.0774559968        0.0745786791
 C         -6.4473305983        1.2739459628        0.4493184909
 C         -6.9500729439       -1.0004913456       -0.0457489776
 H         -6.7334449204        2.2592402848        0.7807862054
 H         -7.6478739776       -1.8220892904       -0.1050866875
 C         -2.8454914272        1.9129861104       -0.2381782649
 H         -2.1635386036        2.7471333625       -0.1785866977
 C         -4.1504492644        2.1199684852        0.1281924453
 H         -4.4659867748        3.0969856652        0.4627968548
 C         -3.8924113387       -2.7432113806       -1.2374912795
 H         -3.5791967192       -3.7194505016       -1.5759883459
 C         -5.1979007589       -2.5232336873       -0.8751243282
 H         -5.9190106918       -3.3250773184       -0.9273437973
 C         -8.8326436161        0.4346046767        0.8044075956
 C         -9.1448493110       -0.5282163644        1.9611404871
 H         -8.4949334680       -0.3275201624        2.8102443818
 H         -9.0199413663       -1.5675959288        1.6703365780
 H        -10.1744838740       -0.3912307032        2.2787850700
 C         -9.7287321415        0.1083717805       -0.4006115766
 H         -9.6161679994       -0.9224023329       -0.7248989924
 H         -9.4931343373        0.7609005471       -1.2385166886
 H        -10.7694527022        0.2617094042       -0.1299377468
 C         -9.1357797481        1.8613271836        1.2642788978
 H         -8.9577386708        2.5804866485        0.4678351743
 H         -8.5448786972        2.1303375112        2.1371609718
 H        -10.1835884330        1.9328083106        1.5427325678
 H         -1.2833858257       -2.8983749140       -1.8783523144
