77
       -105.32458060
 H         -0.3356744219        1.9305352900        1.0038805499
 C          0.6787514345        1.5984778040        0.8392776844
 C          3.3006759791        0.7458210100        0.4139741051
 C          1.0395537631        0.3108766960        1.2379007930
 C          1.5810510536        2.4595897315        0.2591073589
 C          2.9136996109        2.0569941434        0.0360016330
 C          2.3671682110       -0.1428409354        1.0177156494
 H          1.2772432176        3.4552673506       -0.0262593669
 C          4.6324738275        0.3321152538        0.1853926201
 C          7.3154543300       -0.5157100285       -0.2893815394
 C          5.0569052676       -0.9685898132        0.5464798484
 C          5.5691432094        1.2133819433       -0.4093529830
 C          6.8881976022        0.7682990882       -0.6307225033
 C          6.3901935855       -1.3656910522        0.3014036061
 H          7.5795353297        1.4631259393       -1.0831940362
 H          6.6735425412       -2.3648078287        0.5912679341
 C          3.8626010918        2.9235224328       -0.5497863404
 H          3.5532128551        3.9205158667       -0.8254847208
 C          5.1552951544        2.5161105235       -0.7664655630
 H          5.8699313171        3.1903260456       -1.2141297821
 C          2.8261026513       -1.4359984909        1.3724563744
 H          2.1531412967       -2.1385201052        1.8393751374
 C          4.1181055328       -1.8350078966        1.1452935115
 H          4.4315860407       -2.8283271864        1.4301932462
 C          8.7479258295       -0.9240255799       -0.5741635691
 C          8.9983021408       -0.8090650369       -2.0862976022
 H         10.0144859597       -1.1205958146       -2.3101781654
 H          8.8745382919        0.2097632371       -2.4429350224
 H          8.3140513729       -1.4519185715       -2.6360540156
 C          9.0462760236       -2.3596987952       -0.1398173756
 H          8.4194190498       -3.0726940699       -0.6710422614
 H          8.9128733750       -2.4851417840        0.9323955384
 H         10.0810901265       -2.5962648609       -0.3716346057
 C          9.6923812928        0.0225210253        0.1832320913
 H          9.5008953870       -0.0236533994        1.2530692884
 H          9.5829604477        1.0533695165       -0.1418557638
 H         10.7217939040       -0.2759614638        0.0069044348
 C         -0.0298340491       -0.5262952448        1.8868467027
 H         -0.4624353540        0.0436257531        2.7086778824
 H          0.3830607238       -1.4428410454        2.3073514081
 H          0.3218947016       -2.1740771932       -0.1306757835
 C         -0.6899229524       -1.7963969680       -0.1294115753
 C         -3.3050992115       -0.8251610221       -0.1289103849
 C         -1.5677442199       -2.2256020434       -1.0976525695
 C         -1.0727676923       -0.8979306360        0.8671577414
 C         -2.3969774201       -0.3847412423        0.8745876202
 C         -2.8965228430       -1.7547753486       -1.1191964087
 C         -4.6329608466       -0.3419887066       -0.1493784970
 C         -7.3077484289        0.6509887601       -0.1953106732
 C         -5.5446492126       -0.7809250494       -1.1412753195
 C         -5.0783402200        0.5878357722        0.8198611037
 C         -6.4070469905        1.0654044985        0.7766130847
 C         -6.8603413933       -0.2749618111       -1.1387722364
 H         -6.7068243765        1.7729646174        1.5329487159
 H         -7.5325950035       -0.6302397932       -1.9051422500
 C         -2.8765989206        0.5421706579        1.8334873211
 H         -2.2233707149        0.8962760022        2.6160014611
 C         -4.1645581865        1.0118452266        1.8076895835
 H         -4.4942930419        1.7171438240        2.5559840293
 C         -3.8207745552       -2.1854909217       -2.0962729190
 H         -3.4952987826       -2.8984776847       -2.8388603461
 C         -5.1099011128       -1.7143249012       -2.1085624926
 H         -5.8056104529       -2.0538860841       -2.8611335610
 C         -8.7347434399        1.1590040245       -0.2692339963
 C         -9.0561968259        2.1681441371        0.8340101226
 H         -8.4194774856        3.0474826017        0.7642323029
 H         -8.9548777217        1.7221306058        1.8209030718
 H        -10.0855891182        2.4991846954        0.7276792819
 C         -9.6924182122       -0.0352622488       -0.1341793854
 H        -10.7188673987        0.3190568166       -0.1611954637
 H         -9.5317437661       -0.5475479193        0.8119155352
 H         -9.5650751682       -0.7526749042       -0.9400440290
 C         -8.9421046903        1.8412464230       -1.6308042093
 H         -8.2472678430        2.6696205698       -1.7519898635
 H         -9.9537704600        2.2321751634       -1.6900460081
 H         -8.8015714234        1.1506108189       -2.4577078111
 H         -1.2475689091       -2.9324167864       -1.8479931204
