77
       -105.32445564
 H         -0.3450418124        1.8599932257        1.2050731686
 C          0.6669538661        1.5371128246        1.0102838400
 C          3.2820951102        0.7084213285        0.5042593011
 C          1.0268136712        0.2243683683        1.3168661124
 C          1.5671627050        2.4336209332        0.4828457034
 C          2.8961481973        2.0433170980        0.2198808480
 C          2.3515123119       -0.2163275045        1.0560804269
 H          1.2642275099        3.4473720059        0.2691892106
 C          4.6099303316        0.3071751717        0.2341476307
 C          7.2833258744       -0.5158498139       -0.3298109650
 C          5.0334224962       -1.0161134874        0.5023077301
 C          5.5433448643        1.2236222032       -0.3104275093
 C          6.8577561214        0.7900067813       -0.5774402162
 C          6.3619639749       -1.4003382285        0.2145988148
 H          7.5467720338        1.5116853451       -0.9896305230
 H          6.6447431788       -2.4175300507        0.4334616463
 C          3.8422877459        2.9448860254       -0.3153017195
 H          3.5339574888        3.9594044334       -0.5187956509
 C          5.1309225165        2.5489930864       -0.5734493913
 H          5.8433372727        3.2497568129       -0.9821872024
 C          2.8104356780       -1.5307724637        1.3212731399
 H          2.1410121158       -2.2600262818        1.7507794264
 C          4.0985136829       -1.9174005032        1.0538550120
 H          4.4119454421       -2.9279530411        1.2699055036
 C          8.7099394324       -0.9093833361       -0.6610459865
 C          9.0066969189       -2.3728215632       -0.3307172295
 H          8.8876001090       -2.5712215684        0.7321095424
 H         10.0369047897       -2.5973678748       -0.5930103944
 H          8.3686955499       -3.0447899842       -0.9007535615
 C          9.6689077667       -0.0211668326        0.1470573332
 H          9.4912494037       -0.1402612494        1.2136351572
 H          9.5603049714        1.0300783698       -0.1047224027
 H         10.6944217814       -0.3109349295       -0.0632494389
 C          8.9410512380       -0.6914831461       -2.1648796106
 H          8.8177515324        0.3500087601       -2.4488265717
 H          8.2464265110       -1.2920656044       -2.7484043181
 H          9.9526267200       -0.9909965562       -2.4233533582
 C         -0.0411463821       -0.6548718478        1.9106067064
 H         -0.4834304280       -0.1359506070        2.7604337796
 H          0.3748968219       -1.5916532223        2.2800042825
 H          0.3228552797       -2.2126573347       -0.1763658454
 C         -0.6850623016       -1.8248374209       -0.1710575220
 C         -3.2894839392       -0.8254808113       -0.1629113612
 C         -1.5523756592       -2.1976372385       -1.1715930125
 C         -1.0737650745       -0.9712048497        0.8619135547
 C         -2.3931412778       -0.4457505233        0.8753706536
 C         -2.8752717984       -1.7105430116       -1.1909480156
 C         -4.6111008227       -0.3253806972       -0.1811635314
 C         -7.2713954918        0.7058544599       -0.2245104408
 C         -5.5106338507       -0.7029009124       -1.2087903683
 C         -5.0620651509        0.5609198365        0.8255369086
 C         -6.3834891021        1.0583554062        0.7829534002
 C         -6.8193560703       -0.1792446382       -1.2042816017
 H         -6.6879258106        1.7312200403        1.5685261159
 H         -7.4823475564       -0.4872586418       -1.9986574148
 C         -2.8792777564        0.4358611664        1.8729423202
 H         -2.2366029338        0.7396427387        2.6847909039
 C         -4.1610987972        0.9221962066        1.8494096985
 H         -4.4959690948        1.5919895510        2.6274628801
 C         -3.7880904433       -2.0819435139       -2.2025012970
 H         -3.4587905945       -2.7625473563       -2.9732520515
 C         -5.0709163387       -1.5938906660       -2.2131186422
 H         -5.7577243979       -1.8873050969       -2.9927827945
 C         -8.6891868994        1.2387688177       -0.2996413345
 C         -8.8585404035        1.9929228053       -1.6281861674
 H         -8.7100011499        1.3434958794       -2.4865034496
 H         -8.1499726772        2.8160384861       -1.6923974583
 H         -9.8632713814        2.4012803104       -1.6877462486
 C         -9.0181274592        2.1951076370        0.8475292783
 H        -10.0403472051        2.5468642160        0.7385890714
 H         -8.3676636152        3.0670439289        0.8352151413
 H         -8.9428541792        1.6977988051        1.8119820825
 C         -9.6669945220        0.0544947675       -0.2450530605
 H         -9.5348704374       -0.6220250536       -1.0847853612
 H        -10.6873025322        0.4260740090       -0.2726614679
 H         -9.5324480683       -0.5087201076        0.6758295876
 H         -1.2280866232       -2.8713360609       -1.9501004619
