77
       -105.32440649
 H         -0.3374249554        1.9562007734        0.8611215445
 C          0.6798963085        1.6221533424        0.7198207554
 C          3.3112348474        0.7702361621        0.3554260758
 C          1.0409861249        0.3535173707        1.1681991098
 C          1.5865413970        2.4675552360        0.1189267034
 C          2.9220323587        2.0648601533       -0.0733942938
 C          2.3749838967       -0.1021872449        0.9781830863
 H          1.2806710239        3.4508991020       -0.2046086865
 C          4.6482820756        0.3566907311        0.1584862146
 C          7.3450375304       -0.4832162129       -0.2498625230
 C          5.0730435060       -0.9274770583        0.5712222475
 C          5.5898368275        1.2212888411       -0.4545806240
 C          6.9174381094        0.7800783815       -0.6442740518
 C          6.4115018474       -1.3194185062        0.3583483622
 H          7.6052660955        1.4645486336       -1.1144426775
 H          6.7019043689       -2.3063571159        0.6855730452
 C          3.8752256176        2.9145221541       -0.6786258032
 H          3.5644205646        3.8990296730       -0.9947519072
 C          5.1728718488        2.5069502340       -0.8632531746
 H          5.8898861171        3.1691145680       -1.3248878209
 C          2.8336005365       -1.3800309583        1.3815712075
 H          2.1567969136       -2.0711121217        1.8597568337
 C          4.1310806860       -1.7793169132        1.1867480295
 H          4.4454920890       -2.7606647976        1.5095760204
 C          8.7658089479       -0.9722195279       -0.4580890438
 C          8.7265195939       -2.2288953796       -1.3421126674
 H          8.1723196836       -3.0377762905       -0.8739544885
 H          9.7393647645       -2.5774865221       -1.5220638362
 H          8.2661029560       -2.0053269146       -2.3021457537
 C          9.3771223036       -1.3151763306        0.9092064866
 H          9.3792854717       -0.4403947824        1.5558237627
 H         10.4038915558       -1.6432974783        0.7755690789
 H          8.8334916567       -2.1118878612        1.4093953591
 C          9.6525261199        0.0719861899       -1.1384678820
 H         10.6527079895       -0.3340202146       -1.2626451484
 H          9.7371167973        0.9735921262       -0.5358949297
 H          9.2770637844        0.3275924306       -2.1269572758
 C         -0.0303190521       -0.4644809278        1.8381085047
 H         -0.4607566631        0.1262216833        2.6462560965
 H          0.3794269428       -1.3715618924        2.2815285025
 H          0.3260010701       -2.1327247000       -0.1615216133
 C         -0.6890505979       -1.7637267540       -0.1586552035
 C         -3.3144670458       -0.8205018956       -0.1559990245
 C         -1.5699582221       -2.2151196284       -1.1167916280
 C         -1.0738400660       -0.8575902374        0.8271064988
 C         -2.4048342884       -0.3558842528        0.8350667674
 C         -2.9019973789       -1.7590530157       -1.1360012214
 C         -4.6479997682       -0.3526708502       -0.1741710278
 C         -7.3374272614        0.6011369610       -0.2177100009
 C         -5.5633306597       -0.8150642619       -1.1530818139
 C         -5.0953933868        0.5846952667        0.7855392126
 C         -6.4296653883        1.0411143838        0.7430337435
 C         -6.8879165432       -0.3265458344       -1.1513353798
 H         -6.7377299172        1.7566461573        1.4904078498
 H         -7.5555118191       -0.7003356299       -1.9111141422
 C         -2.8857277078        0.5806208177        1.7825044417
 H         -2.2294919061        0.9563851408        2.5522277327
 C         -4.1796354373        1.0346693627        1.7605830768
 H         -4.5115777135        1.7473990974        2.5008172178
 C         -3.8292917069       -2.2118554234       -2.1013521256
 H         -3.5010950813       -2.9304003085       -2.8374031238
 C         -5.1238043405       -1.7555151447       -2.1102498607
 H         -5.8209733059       -2.1134024261       -2.8529135555
 C         -8.7548909108        1.1413763037       -0.2125613670
 C         -9.4102522781        0.8008770018        1.1347764506
 H        -10.4350702107        1.1607244436        1.1409922986
 H         -8.8885627721        1.2619614007        1.9688673720
 H         -9.4251184735       -0.2757170329        1.2899779329
 C         -9.6125673861        0.5507512354       -1.3328749581
 H        -10.6117312714        0.9744166946       -1.2799259233
 H         -9.7080814152       -0.5280936145       -1.2322699868
 H         -9.2056624044        0.7913019063       -2.3126568987
 C         -8.6980089260        2.6664838134       -0.3945405292
 H         -9.7074471179        3.0667716518       -0.4181841729
 H         -8.2072876310        2.9204772979       -1.3317223040
 H         -8.1639123821        3.1527735914        0.4171695008
 H         -1.2464801226       -2.9290920714       -1.8589524938
