77
       -105.32431427
 H         -0.3648290826        1.4289142497        1.6820060537
 C          0.6495000069        1.1692179428        1.4174133752
 C          3.2705410680        0.4963190002        0.7398897724
 C          1.0548529488        1.3013880593        0.0888327592
 C          1.5083100423        0.7341160290        2.3999302773
 C          2.8392731303        0.3902605828        2.0869402522
 C          2.3829282026        0.9530857909       -0.2745728040
 H          1.1710881440        0.6562073601        3.4223396576
 C          4.6003171509        0.1435592637        0.4168294708
 C          7.2774485208       -0.5884016567       -0.2461545115
 C          5.0682813368        0.2338938149       -0.9155309292
 C          5.4911855818       -0.3071495746        1.4222822510
 C          6.8084403724       -0.6606505777        1.0662914828
 C          6.3977482716       -0.1342130490       -1.2195302852
 H          7.4643138227       -0.9984739810        1.8544326425
 H          6.7150867156       -0.0511464252       -2.2466401297
 C          3.7435189378       -0.0533720519        3.0768576260
 H          3.4010726946       -0.1211383074        4.0985496630
 C          5.0343799089       -0.3923350097        2.7564512135
 H          5.7145603558       -0.7290732363        3.5243236454
 C          2.8859671292        1.0407015494       -1.5966910954
 H          2.2501076733        1.3932891639       -2.3940387091
 C          4.1757764738        0.6937508106       -1.9067790893
 H          4.5236012236        0.7743692112       -2.9259208902
 C          8.7038312886       -1.0035841366       -0.5508689118
 C          8.8827401795       -2.4747356920       -0.1431789284
 H          8.7215687880       -2.6244890488        0.9208303406
 H          9.8939660196       -2.7952490481       -0.3766104436
 H          8.1877388312       -3.1089552598       -0.6894684317
 C          9.6617522906       -0.1181884335        0.2614622196
 H         10.6881042267       -0.3899987370        0.0321366787
 H          9.5161140262       -0.2354167819        1.3316701886
 H          9.5200272152        0.9299243592        0.0070814015
 C          9.0514983504       -0.8644943549       -2.0336134958
 H          8.9697611706        0.1684595693       -2.3644857955
 H          8.4159639501       -1.4963132336       -2.6503886747
 H         10.0793525586       -1.1793115479       -2.1915775170
 C          0.0301483787        1.8090296259       -0.8900701695
 H          0.4832870939        2.0512353993       -1.8507920907
 H         -0.4036833903        2.7262063184       -0.4931874118
 H          0.3807409858       -0.4636460355       -2.1666941878
 C         -0.6371238537       -0.3849914901       -1.8144286357
 C         -3.2685813356       -0.1930441343       -0.9089359570
 C         -1.5222970429       -1.4041244532       -2.0898220165
 C         -1.0205869658        0.7530645903       -1.1086700500
 C         -2.3558427345        0.8628772757       -0.6305396717
 C         -2.8569781174       -1.3317635490       -1.6473544712
 C         -4.6044378641       -0.1185576049       -0.4534490688
 C         -7.2959270009        0.0220362251        0.4851127634
 C         -5.5221854293       -1.1630852738       -0.7303167743
 C         -5.0514605574        1.0002091728        0.2870387118
 C         -6.3868750511        1.0464382778        0.7398908480
 C         -6.8477868811       -1.0674837177       -0.2540222541
 H         -6.6946801322        1.9149569448        1.3023848001
 H         -7.5172440767       -1.8809715477       -0.4836272434
 C         -2.8382705241        1.9726147051        0.1054407983
 H         -2.1822181269        2.7997219702        0.3286286931
 C         -4.1342541377        2.0403106834        0.5490922210
 H         -4.4668528456        2.9030539392        1.1069419751
 C         -3.7875666849       -2.3595355849       -1.9203611507
 H         -3.4602940777       -3.2163155570       -2.4901050623
 C         -5.0838663213       -2.2788935164       -1.4763491624
 H         -5.7832116567       -3.0720321663       -1.6943395036
 C         -8.7132416272        0.1284265331        1.0151877927
 C         -9.3679117386        1.3904266967        0.4326202193
 H         -9.3828768979        1.3449993651       -0.6541457798
 H         -8.8458859982        2.2949070075        0.7323791654
 H        -10.3926884310        1.4631769101        0.7852028196
 C         -8.6551676662        0.2304694805        2.5477161236
 H         -8.1193067310        1.1169850515        2.8757321201
 H         -8.1656351981       -0.6446605010        2.9698179357
 H         -9.6642440262        0.2827137384        2.9461949477
 C         -9.5721294989       -1.0809409341        0.6418142423
 H        -10.5707609599       -0.9502227848        1.0495691345
 H         -9.1654058692       -1.9999741240        1.0582270318
 H         -9.6689276688       -1.1806931954       -0.4369876703
 H         -1.1994296384       -2.2668828230       -2.6524924960
