77
       -105.32390940
 H         -0.3745755726        2.0033799297        1.1997607286
 C          0.6314702814        1.6641494527        1.0026431755
 C          3.2306070384        0.7982496111        0.4790331520
 C          1.0105800454        0.3924473502        1.4256363661
 C          1.5063691859        2.5073246836        0.3532757383
 C          2.8238429240        2.0956990860        0.0759355872
 C          2.3312408955       -0.0668931072        1.1632922569
 H          1.1876404094        3.4937055979        0.0521723529
 C          4.5481596301        0.3743066739        0.1929086261
 C          7.1968004399       -0.4955729240       -0.4173299346
 C          4.9906265584       -0.9121042594        0.5790659119
 C          5.4512738358        1.2295142215       -0.4874849762
 C          6.7557428364        0.7735099716       -0.7765602344
 C          6.3049738835       -1.3187640681        0.2665312105
 H          7.4143120571        1.4510949175       -1.2959947233
 H          6.6100567804       -2.3069381803        0.5762218973
 C          3.7416277444        2.9391221787       -0.5897230093
 H          3.4192511414        3.9276511566       -0.8806949950
 C          5.0193281841        2.5198010831       -0.8646675474
 H          5.7085644185        3.1757672099       -1.3748870638
 C          2.8123111273       -1.3407937866        1.5527207458
 H          2.1708039644       -2.0182802700        2.0947042215
 C          4.0904018876       -1.7506330680        1.2705557896
 H          4.4220341509       -2.7297660437        1.5827956288
 C          8.5885901423       -1.0041202576       -0.7418605310
 C          9.3073398150       -1.3578729878        0.5690876208
 H          8.7973537790       -2.1488382569        1.1119600518
 H          9.3747318320       -0.4846956949        1.2143226121
 H         10.3150762214       -1.6986151627        0.3497100951
 C          9.4301156317        0.0279755605       -1.4943698477
 H          9.5792293339        0.9270215788       -0.9005974742
 H          8.9759213507        0.2910350639       -2.4472576821
 H         10.4098709031       -0.3927615055       -1.7033390002
 C          8.4565211815       -2.2586469957       -1.6200298318
 H          7.9220671329       -2.0262998108       -2.5387648811
 H          7.9297965212       -3.0592015587       -1.1078239713
 H          9.4453173403       -2.6231381317       -1.8830266880
 C         -0.0310789113       -0.4355599326        2.1310541075
 H         -0.4921799853        0.1716780842        2.9089009490
 H          0.4118040762       -1.3060521630        2.6131823548
 H          0.3523146004       -2.3048683747        0.3169773638
 C         -0.6491709155       -1.9083621502        0.2405611443
 C         -3.2351170103       -0.8844502758        0.0304741286
 C         -1.4985498051       -2.4158049720       -0.7151281823
 C         -1.0479428225       -0.9057198212        1.1249525294
 C         -2.3602273071       -0.3707600129        1.0286215323
 C         -2.8108382031       -1.9172401082       -0.8442097513
 C         -4.5450106013       -0.3707646799       -0.1014849952
 C         -7.1756820753        0.6968344245       -0.3870923838
 C         -5.4217292442       -0.8777509752       -1.0924673123
 C         -5.0062292056        0.6597037540        0.7515711944
 C         -6.3127850293        1.1721576076        0.5912160086
 C         -6.7162081910       -0.3325003496       -1.2098887954
 H         -6.6257469408        1.9569737700        1.2610482833
 H         -7.3617679183       -0.7406041059       -1.9728838066
 C         -2.8599996749        0.6470014600        1.8789605573
 H         -2.2385788900        1.0469152518        2.6652500677
 C         -4.1303647766        1.1455526285        1.7452350066
 H         -4.4757482918        1.9220081342        2.4115619240
 C         -3.7029085387       -2.4192880795       -1.8171107733
 H         -3.3670597999       -3.2126817955       -2.4678375143
 C         -4.9735573503       -1.9152442363       -1.9402068847
 H         -5.6440256763       -2.3080891757       -2.6897432533
 C         -8.5739391043        1.2464822804       -0.5931877739
 C         -9.5879483554        0.1070407701       -0.4065911276
 H         -9.5021903481       -0.3201016137        0.5901497092
 H         -9.4473095104       -0.6869277186       -1.1346688847
 H        -10.5951105591        0.4957476775       -0.5265616140
 C         -8.6733499476        1.8031040759       -2.0225006651
 H         -8.5125377223        1.0323173788       -2.7712415788
 H         -7.9393870125        2.5913152726       -2.1766800802
 H         -9.6630357227        2.2217799818       -2.1806510684
 C         -8.9145907384        2.3675138127        0.3896692349
 H         -8.8886534847        2.0142881779        1.4181002058
 H         -9.9212256889        2.7247393555        0.1906423068
 H         -8.2381352136        3.2120765276        0.2770588113
 H         -1.1671653852       -3.2029548292       -1.3751949655
