77
       -105.32212779
 H          0.5477673094        4.5651366913        0.4083408442
 C          1.1948758338        3.7130315308        0.2579982970
 C          2.9151850720        1.5469644628       -0.1093796649
 C          1.0246344585        2.5798481585        1.0560605621
 C          2.1781812982        3.7867465603       -0.7030445709
 C          3.0684345343        2.7117892193       -0.9045112469
 C          1.8855444955        1.4644658788        0.8668370485
 H          2.2875086235        4.6803773311       -1.2985616951
 C          3.8187165643        0.4742445072       -0.2791703172
 C          5.6673062713       -1.6755460422       -0.5860769624
 C          3.7063652565       -0.6950520496        0.5093786863
 C          4.8663130147        0.5598240207       -1.2295502170
 C          5.7660995124       -0.5173673171       -1.3590198357
 C          4.6325621309       -1.7476601807        0.3365413937
 H          6.5568549724       -0.4224851035       -2.0877889709
 H          4.5140499387       -2.6219476112        0.9562275866
 C          4.1104527117        2.7740133251       -1.8551760090
 H          4.2135045784        3.6660090556       -2.4547479291
 C          4.9876134391        1.7291938049       -2.0133850122
 H          5.7856301881        1.7954666022       -2.7376339614
 C          1.7907091653        0.2778055077        1.6319409817
 H          1.0108502501        0.1903599086        2.3722025740
 C          2.6657071049       -0.7635923715        1.4605841276
 H          2.5709674184       -1.6523570947        2.0665158455
 C          6.6815089237       -2.7870530486       -0.7773224505
 C          6.6354372050       -3.2559994089       -2.2399559814
 H          5.6381453788       -3.6061744131       -2.4975083153
 H          7.3321298551       -4.0777205035       -2.3782484343
 H          6.9123783094       -2.4650442403       -2.9310784914
 C          6.4103672334       -3.9899570288        0.1275339570
 H          5.4383468584       -4.4316937126       -0.0814531557
 H          6.4680932809       -3.7166180239        1.1787799527
 H          7.1637503003       -4.7513219639       -0.0545505816
 C          8.0775134240       -2.2333730890       -0.4512771263
 H          8.1163900353       -1.8776233916        0.5760010714
 H          8.3540938778       -1.4141921015       -1.1092669999
 H          8.8160227125       -3.0212475864       -0.5685850721
 C          0.0262839876        2.6404926020        2.1781032679
 H         -0.5381550605        3.5747494515        2.0819995015
 H          0.6001574462        2.7166570382        3.1085685042
 H         -0.4725298681        1.2547472068        4.4013626147
 C         -1.1341641746        0.9568770469        3.6007639871
 C         -2.8912113903        0.2150662182        1.5638096435
 C         -2.1168673440        0.0283172518        3.8612729635
 C         -0.9807440154        1.5366809036        2.3396105723
 C         -1.8626777057        1.1571923817        1.2912481722
 C         -3.0238802696       -0.3602246646        2.8538014579
 C         -3.8136199317       -0.1392919529        0.5541777747
 C         -5.7014522630       -0.8154670071       -1.4733285131
 C         -4.8573569045       -1.0587804084        0.8245531728
 C         -3.7240225679        0.4315854287       -0.7373052046
 C         -4.6707544061        0.0796989189       -1.7252357036
 C         -5.7752395564       -1.3756957091       -0.1968843730
 H         -4.5711080663        0.5379917427       -2.6960724087
 H         -6.5604648909       -2.0783394665        0.0378233641
 C         -1.7896720361        1.7010764802       -0.0131504440
 H         -1.0112890888        2.4115283563       -0.2440953827
 C         -2.6852151852        1.3529965533       -0.9912615211
 H         -2.6078637784        1.7937371740       -1.9740172001
 C         -4.0628739872       -1.2836244739        3.1012142645
 H         -4.1499367659       -1.7153450062        4.0870045113
 C         -4.9566917569       -1.6240077095        2.1157505130
 H         -5.7516686012       -2.3247464818        2.3224534846
 C         -6.7350637937       -1.1998431524       -2.5147465411
 C         -6.5084769548       -0.4957562690       -3.8533648687
 H         -7.2769289201       -0.8069210673       -4.5555802697
 H         -5.5443190487       -0.7598376833       -4.2825044769
 H         -6.5772767726        0.5847950424       -3.7489638654
 C         -8.1269842221       -0.8155341873       -1.9893672460
 H         -8.8768034383       -1.0646919494       -2.7347381644
 H         -8.1796877182        0.2534732779       -1.7948221213
 H         -8.3775170384       -1.3442195823       -1.0739084686
 C         -6.6648162445       -2.7180962958       -2.7425084143
 H         -5.6714723347       -3.0082797475       -3.0782843768
 H         -7.3809202315       -3.0025325323       -3.5080822375
 H         -6.9006346673       -3.2765026645       -1.8409907021
 H         -2.2120579262       -0.3969605536        4.8488068805
