77
       -105.32206219
 H          0.4112264419        4.3457327445        0.1764160770
 C          1.1009386109        3.5164217101        0.2435902486
 C          2.9485170962        1.4313256097        0.3912867653
 C          1.0375700808        2.4980147433       -0.7089198852
 C          2.0349543938        3.5115436571        1.2558376317
 C          2.9874241654        2.4763400282        1.3497502837
 C          1.9628794108        1.4217239712       -0.6326551616
 H          2.0592696854        4.3169505375        1.9741512715
 C          3.9234576392        0.4103638536        0.4469467879
 C          5.9308306557       -1.6145321176        0.5122394119
 C          3.9280278756       -0.6353324997       -0.5060914969
 C          4.9282451869        0.4290352765        1.4458954726
 C          5.9070720912       -0.5853026180        1.4548521131
 C          4.9321298354       -1.6276699412       -0.4519942374
 H          6.6617126780       -0.5439550613        2.2257264606
 H          4.9041094492       -2.4055942152       -1.1980042681
 C          3.9840339131        2.4675294999        2.3500266064
 H          3.9972457146        3.2658214461        3.0768856231
 C          4.9304323022        1.4735505095        2.3974086359
 H          5.6933724935        1.4865247358        3.1612925652
 C          1.9781349948        0.3499924425       -1.5570350905
 H          1.2282831747        0.3115057739       -2.3309178462
 C          2.9236040362       -0.6412155218       -1.4976687627
 H          2.9137215897       -1.4393253692       -2.2249809969
 C          7.0308070476       -2.6568914366        0.5758560990
 C          6.9099068132       -3.7049572862       -0.5313844599
 H          6.9827107493       -3.2499527594       -1.5167909171
 H          5.9768144018       -4.2587927484       -0.4536464040
 H          7.7240107109       -4.4184817212       -0.4387595705
 C          6.9588467601       -3.3703437469        1.9350715196
 H          7.7283178043       -4.1354729627        1.9829860740
 H          5.9907703786       -3.8498317558        2.0635512917
 H          7.1168267365       -2.6854860092        2.7634507736
 C          8.3860744174       -1.9470450253        0.4311019128
 H          9.1842700572       -2.6835910375        0.4477947522
 H          8.5652340460       -1.2420687185        1.2381185572
 H          8.4362733594       -1.4092556494       -0.5132095543
 C          0.0812856621        2.6485720964       -1.8605284607
 H          0.6860875565        2.7950033054       -2.7617516401
 H         -0.4905465187        3.5703415331       -1.7096542195
 H         -0.2364146053        1.3203815386       -4.1569230144
 C         -0.9613912481        1.0050641842       -3.4200673759
 C         -2.8966708203        0.2368110883       -1.5633046543
 C         -1.9228115502        0.0890903199       -3.7857315536
 C         -0.9131825748        1.5543164888       -2.1377017596
 C         -1.8841968106        1.1571021814       -1.1786478761
 C         -2.9190862451       -0.3106192783       -2.8717531051
 C         -3.9141101126       -0.1207014001       -0.6506364919
 C         -6.0046918638       -0.7838673707        1.1724328971
 C         -4.9443256527       -1.0141785387       -1.0356358501
 C         -3.9357483839        0.4239519612        0.6549755876
 C         -4.9814348081        0.0792946788        1.5401807356
 C         -5.9641364035       -1.3252635191       -0.1134803408
 H         -4.9654743241        0.5185820585        2.5246759496
 H         -6.7373190768       -2.0064963494       -0.4352644530
 C         -1.9182063903        1.6662173507        0.1415491081
 H         -1.1496231203        2.3513834662        0.4616595112
 C         -2.9054103291        1.3145031487        1.0256752297
 H         -2.9087099765        1.7296552056        2.0225164447
 C         -3.9424176021       -1.2147361539       -3.2312025709
 H         -3.9429997303       -1.6285673736       -4.2284539439
 C         -4.9296300286       -1.5570368106       -2.3400304222
 H         -5.7119407291       -2.2410381964       -2.6331073167
 C         -7.1488418889       -1.1497026796        2.0985555940
 C         -7.1492409526       -2.6718503624        2.3091998933
 H         -6.2050974261       -2.9977807465        2.7404036874
 H         -7.3083804482       -3.2117308228        1.3800333737
 H         -7.9486122310       -2.9420627304        2.9931791948
 C         -8.4675675584       -0.7143133605        1.4405428603
 H         -8.6408010816       -1.2258103447        0.4977817691
 H         -8.4659412918        0.3576648030        1.2552578979
 H         -9.2965805464       -0.9454106419        2.1032939474
 C         -7.0382883758       -0.4690926733        3.4637217068
 H         -6.1296339038       -0.7660478537        3.9829234917
 H         -7.8813638250       -0.7667533370        4.0810042346
 H         -7.0667519731        0.6142258397        3.3693396201
 H         -1.9341637348       -0.3134958220       -4.7872499300
