77
       -105.32629298
 H         -0.3084690235        1.6024300011       -0.7444876875
 C          0.6978768100        1.2763062747       -0.5286444086
 C          3.3109658012        0.4600177549        0.0292122254
 C          1.0725757959       -0.0275598963       -0.8403860546
 C          1.5823546311        2.1679021492        0.0400316177
 C          2.9086175622        1.7875273638        0.3255811016
 C          2.3974663661       -0.4602415320       -0.5502924229
 H          1.2641438039        3.1744128568        0.2659714105
 C          4.6369099088        0.0628757167        0.3121706271
 C          7.3142653838       -0.7424502001        0.8751438899
 C          5.0699502866       -1.2544921446        0.0319454009
 C          5.5571344304        0.9794440684        0.8782118734
 C          6.8752010377        0.5543793776        1.1435865308
 C          6.4007805258       -1.6303005769        0.3216504357
 H          7.5554829936        1.2753547527        1.5712404116
 H          6.6925736868       -2.6434496296        0.0958594924
 C          3.8395243450        2.6863586304        0.8920231250
 H          3.5203196117        3.6941962802        1.1114729044
 C          5.1284493097        2.2959917687        1.1593790125
 H          5.8293735963        2.9956274469        1.5894875612
 C          2.8577879965       -1.7729408444       -0.8157803798
 H          2.1868234292       -2.4978247324       -1.2491908416
 C          4.1445889066       -2.1568062496       -0.5342385467
 H          4.4634731665       -3.1657612483       -0.7494240931
 C          8.7484633326       -1.1235127877        1.1893386892
 C          9.6842720960       -0.2285435671        0.3616761203
 H          9.4946775062       -0.3585416061       -0.7016284346
 H         10.7165949269       -0.5015800725        0.5606993962
 H          9.5625677135        0.8229954104        0.6066777324
 C          9.0529211984       -2.5852309779        0.8575147335
 H          8.9240853383       -2.7864685612       -0.2036527063
 H          8.4265579992       -3.2611094929        1.4356717882
 H         10.0877954650       -2.8010119037        1.1085494775
 C          9.0038025122       -0.9003086063        2.6880175954
 H          8.3186606418       -1.4982606920        3.2851318311
 H          8.8873735072        0.1421803257        2.9707780055
 H         10.0191789367       -1.2000210159        2.9309613775
 C          0.1005718357       -0.9710064882       -1.4969749669
 H         -0.0574689642       -1.8319003181       -0.8412085590
 H          0.5713626864       -1.3495714457       -2.4101915336
 H         -0.4904862677        0.1822422622       -3.8127638426
 C         -1.3464998663        0.1794302935       -3.1542826259
 C         -3.5754773611        0.1578259617       -1.4736447193
 C         -2.5420634982        0.6999144736       -3.6063475627
 C         -1.2166863196       -0.3625162349       -1.8793223482
 C         -2.3372334476       -0.3543077958       -1.0008183388
 C         -3.6859109345        0.6870787984       -2.7851226017
 C         -4.7159059139        0.1406693303       -0.6398606996
 C         -7.0255396582        0.0757665499        1.0320533557
 C         -5.9600424764        0.6328981659       -1.1082822601
 C         -4.6362386775       -0.3735197731        0.6748949831
 C         -5.7941968977       -0.3967353349        1.4811001422
 C         -7.0876763348        0.5882602146       -0.2592900141
 H         -5.7018149410       -0.8012677787        2.4777403585
 H         -8.0182594851        0.9685136319       -0.6491996915
 C         -2.2807003255       -0.8346350854        0.3296235054
 H         -1.3453761185       -1.1950876804        0.7286262510
 C         -3.3889022033       -0.8457236539        1.1379549029
 H         -3.3153688463       -1.2239180363        2.1467387478
 C         -4.9318999409        1.1830717769       -3.2308745459
 H         -5.0021267663        1.5851088312       -4.2305129342
 C         -6.0387858518        1.1541138069       -2.4181775576
 H         -6.9848233203        1.5314445026       -2.7765144899
 C         -8.2322735574        0.0105998536        1.9494072020
 C         -9.4905305966        0.5953651920        1.3056697002
 H         -9.7735106450        0.0425313609        0.4127352042
 H         -9.3569368235        1.6459751776        1.0572950109
 H        -10.3164237237        0.5267115068        2.0083731870
 C         -7.9267845684        0.8028539066        3.2298500070
 H         -8.7970670776        0.7907265572        3.8796505004
 H         -7.6932798373        1.8382652096        2.9913254591
 H         -7.0924571473        0.3791995711        3.7820297770
 C         -8.5004081982       -1.4620348692        2.2972615743
 H         -8.6920557849       -2.0382962194        1.3947184597
 H         -9.3750537334       -1.5300753817        2.9377086227
 H         -7.6635060830       -1.9137582988        2.8229271752
 H         -2.6126188477        1.1084204629       -4.6030100657
