77
       -105.32198128
 H          0.6475732032        4.7230551196        0.4000705748
 C          1.2543892524        3.8294776963        0.4213523679
 C          2.8624646809        1.5490484152        0.4698928906
 C          1.0696366993        2.8580624852       -0.5651414691
 C          2.1985720054        3.6898785549        1.4134552241
 C          3.0288332148        2.5507116209        1.4607577312
 C          1.8795073133        1.6895972988       -0.5468362959
 H          2.3203905730        4.4621092753        2.1577332054
 C          3.7047483430        0.4150311995        0.4895327046
 C          5.4177112518       -1.8646705130        0.5109741701
 C          3.5797904647       -0.5933422243       -0.4949517306
 C          4.7012144960        0.2765974632        1.4875138879
 C          5.5332946078       -0.8608291129        1.4741258688
 C          4.4395788878       -1.7138076524       -0.4623750273
 H          6.2843780121       -0.9391347839        2.2455627121
 H          4.3147461726       -2.4597194873       -1.2307906305
 C          4.0235821290        2.3931955699        2.4500765158
 H          4.1394680577        3.1640701632        3.1971186329
 C          4.8387596896        1.2879875424        2.4646156862
 H          5.5996476708        1.1848659225        3.2236670567
 C          1.7764398731        0.6639980885       -1.5162575634
 H          1.0382367834        0.7518051525       -2.2983264860
 C          2.5936839744       -0.4363892461       -1.4927401000
 H          2.4942764282       -1.1978274478       -2.2519184661
 C          6.3502258496       -3.0596738725        0.5661751612
 C          6.1509355032       -3.7757283569        1.9113625253
 H          5.1195992037       -4.1051402543        2.0193248087
 H          6.3980489384       -3.1357872026        2.7538228856
 H          6.7950814850       -4.6492093660        1.9552929666
 C          7.7986686781       -2.5602727569        0.4507977717
 H          8.0706920062       -1.9046052053        1.2731916688
 H          7.9429923386       -2.0202855538       -0.4824196858
 H          8.4761705784       -3.4092455195        0.4626248188
 C          6.0886568471       -4.0597946256       -0.5609796360
 H          5.0811439906       -4.4664025588       -0.5048118130
 H          6.7834430935       -4.8901609993       -0.4704729108
 H          6.2446873370       -3.6060948674       -1.5371884316
 C          0.1078472717        3.1510468873       -1.6813417212
 H          0.7099097300        3.4055393595       -2.5612352594
 H         -0.4544467651        4.0547093268       -1.4192816621
 H         -0.4061004889        2.3252857275       -4.1611393405
 C         -1.0601660938        1.8438610227       -3.4486898309
 C         -2.7884773855        0.6231619136       -1.6289237184
 C         -2.0383346614        0.9933551428       -3.9124485875
 C         -0.8996499494        2.1134419887       -2.0876253987
 C         -1.7711299469        1.4928824795       -1.1511686897
 C         -2.9291667679        0.3657509264       -3.0170060650
 C         -3.6901435575        0.0219226770       -0.7226582098
 C         -5.5213644498       -1.1713818651        1.1088492251
 C         -4.7198614848       -0.8310128488       -1.1919831499
 C         -3.5917479838        0.2731674134        0.6661606362
 C         -4.5105866679       -0.3302162269        1.5534840627
 C         -5.6100225229       -1.4079934710       -0.2640570994
 H         -4.4048141336       -0.1120700888        2.6040321839
 H         -6.3848743692       -2.0529641733       -0.6500779382
 C         -1.6957704351        1.7230205236        0.2429720297
 H         -0.9321597747        2.3817114809        0.6267640982
 C         -2.5711470521        1.1364156441        1.1198162465
 H         -2.4914433898        1.3389343775        2.1774799040
 C         -3.9584403378       -0.4900189416       -3.4656961339
 H         -4.0544650169       -0.6755722577       -4.5249887134
 C         -4.8309807478       -1.0729946900       -2.5796539686
 H         -5.6172277762       -1.7200720077       -2.9386184419
 C         -6.5168401284       -1.8315800163        2.0436210461
 C         -6.2767414711       -1.4653590077        3.5090140430
 H         -6.3830104006       -0.3952099005        3.6723411862
 H         -5.2932774749       -1.7891808805        3.8429721093
 H         -7.0153800719       -1.9665682096        4.1283878610
 C         -6.3938448169       -3.3562147834        1.8941884173
 H         -5.3849303052       -3.6833686922        2.1367204061
 H         -6.6303650379       -3.6870859165        0.8868008526
 H         -7.0843871870       -3.8435574416        2.5764293086
 C         -7.9329993528       -1.3818417431        1.6525756937
 H         -8.0225679113       -0.2999328901        1.7217465192
 H         -8.6546352549       -1.8285317966        2.3305286560
 H         -8.1924325988       -1.6845126737        0.6419546536
 H         -2.1398938381        0.8109652755       -4.9714813344
