77
       -105.32193931
 H          0.4633261568        4.4269358016        0.6107758060
 C          1.1341576704        3.6027044706        0.4147409079
 C          2.9279671455        1.5203859986       -0.0658428271
 C          1.0225875461        2.4383343010        1.1725232408
 C          2.0919397658        3.7460922084       -0.5672622891
 C          3.0152186974        2.7147281825       -0.8259857140
 C          1.9236796712        1.3636911980        0.9274360930
 H          2.1530400130        4.6635043857       -1.1328812406
 C          3.8724358077        0.4931867609       -0.2878222033
 C          5.8154256106       -1.5549401563       -0.6951592721
 C          3.8274645470       -0.7006961391        0.4684601734
 C          4.8946205538        0.6503933789       -1.2575386372
 C          5.8422035728       -0.3802488893       -1.4396923945
 C          4.8000778635       -1.6988595592        0.2473695304
 H          6.6065418045       -0.2262538294       -2.1845013123
 H          4.7407008345       -2.5963428230        0.8443995169
 C          4.0309553607        2.8472251250       -1.7988954926
 H          4.0830727466        3.7598611071       -2.3735333489
 C          4.9461593517        1.8448947676       -2.0088770296
 H          5.7226619004        1.9657487799       -2.7492810813
 C          1.8925222615        0.1510478279        1.6548485475
 H          1.1310785365        0.0054423419        2.4045098801
 C          2.8091262448       -0.8451920515        1.4356669475
 H          2.7646169715       -1.7552750186        2.0151920299
 C          6.8406485114       -2.6602634993       -0.8670216039
 C          6.1139017326       -3.9573630619       -1.2540497193
 H          5.4223519784       -4.2824947953       -0.4816493822
 H          6.8419224975       -4.7491209252       -1.4051733368
 H          5.5592775956       -3.8223280758       -2.1801550088
 C          7.5780992856       -2.8518139780        0.4673186958
 H          8.3342478841       -3.6236891013        0.3567509286
 H          6.9039604089       -3.1545881940        1.2639669902
 H          8.0723064537       -1.9299256979        0.7659388660
 C          7.8719673375       -2.3404771676       -1.9505554349
 H          8.4405928345       -1.4463327431       -1.7052155145
 H          7.4006981184       -2.2182052082       -2.9232887365
 H          8.5758421039       -3.1645455562       -2.0283679364
 C          0.0406777829        2.4115330698        2.3114195992
 H         -0.5258746546        3.3489030917        2.2948365089
 H          0.6248930900        2.4129915217        3.2379948442
 H         -0.3808327857        0.7940687801        4.3924713688
 C         -1.0681510998        0.5791631498        3.5867416074
 C         -2.8991517959        0.0547856951        1.5478980965
 C         -2.0386619797       -0.3785824707        3.7800229583
 C         -0.9618259994        1.2934829620        2.3919168297
 C         -1.8820056594        1.0258994752        1.3420602132
 C         -2.9818904628       -0.6599866540        2.7704283962
 C         -3.8601585261       -0.1900066558        0.5416636819
 C         -5.8283699559       -0.6422395134       -1.4721783790
 C         -4.8920653131       -1.1389029338        0.7481010180
 C         -3.8217631139        0.5213671562       -0.6807308869
 C         -4.8078507533        0.2793233428       -1.6630258630
 C         -5.8496305520       -1.3440954285       -0.2657763172
 H         -4.7470708594        0.8442912627       -2.5793026988
 H         -6.6235473698       -2.0737576356       -0.0812032935
 C         -1.8598154495        1.7101794401        0.1033362126
 H         -1.0910750041        2.4440612488       -0.0790601870
 C         -2.7932680956        1.4689286456       -0.8715135156
 H         -2.7541960744        2.0158456736       -1.8017859773
 C         -4.0094900724       -1.6108978279        2.9533042830
 H         -4.0581037034       -2.1496053315        3.8877472865
 C         -4.9403225512       -1.8448969383        1.9710544423
 H         -5.7259106673       -2.5685043661        2.1291249294
 C         -6.9029617448       -0.9104017722       -2.5084572922
 C         -8.2750522318       -0.6152578278       -1.8830094428
 H         -8.3286565274        0.4194156539       -1.5513750554
 H         -8.4837835392       -1.2598268803       -1.0337591145
 H         -9.0528734248       -0.7773943744       -2.6236844871
 C         -6.8265508865       -2.3880053467       -2.9243652931
 H         -7.5772323678       -2.5894867376       -3.6830982518
 H         -7.0091604969       -3.0561449424       -2.0873789529
 H         -5.8481214670       -2.6169393141       -3.3414175382
 C         -6.7416554918       -0.0432695282       -3.7579209621
 H         -6.8107721643        1.0151465423       -3.5163607807
 H         -7.5401632132       -0.2728806522       -4.4579977949
 H         -5.7972609927       -0.2415995372       -4.2601292222
 H         -2.0965751613       -0.9093319530        4.7181991621
