77
       -105.32632867
 H          0.7764366902        4.0369624889        0.2024608994
 C          1.5661416759        3.3022064179        0.1500809914
 C          3.6274959370        1.4243154306        0.0063705099
 C          1.2855138872        2.0410874405       -0.3642609498
 C          2.8310298189        3.6473085110        0.5831554437
 C          3.8917428560        2.7244172365        0.5087920676
 C          2.3216753572        1.0653062292       -0.4216979794
 H          3.0187655981        4.6368102937        0.9715668256
 C          4.6818660942        0.4870742715       -0.0691462745
 C          6.8148171538       -1.3975802900       -0.2419626400
 C          4.4475783304       -0.8187229814       -0.5581532398
 C          5.9924082082        0.8410747643        0.3393229701
 C          7.0302138097       -0.1116253985        0.2416442034
 C          5.5203875689       -1.7323704077       -0.6339332447
 H          8.0151373088        0.1926077758        0.5577683865
 H          5.3099631257       -2.7206012536       -1.0142219608
 C          5.2032070814        3.0568936854        0.9173061710
 H          5.3918086800        4.0497939069        1.2973344957
 C          6.2255943815        2.1434777713        0.8324400600
 H          7.2229835518        2.4153829860        1.1440046985
 C          2.1123089212       -0.2544367317       -0.8884962007
 H          1.1241595734       -0.5612183908       -1.1943401469
 C          3.1369785349       -1.1640277304       -0.9541959684
 H          2.9475253705       -2.1629805216       -1.3179113342
 C          7.9221233002       -2.4285022511       -0.3569145618
 C          9.2726195146       -1.8944873986        0.1231956488
 H          9.2368256111       -1.6110590062        1.1727929214
 H          9.5980768079       -1.0450676173       -0.4731609069
 H         10.0224845953       -2.6739435401        0.0194520153
 C          8.0562379857       -2.8411243611       -1.8309519740
 H          7.1470999932       -3.3008578920       -2.2088158012
 H          8.8632395925       -3.5607779813       -1.9341705836
 H          8.2882456331       -1.9767632526       -2.4493143379
 C          7.5498937475       -3.6508568614        0.4964070651
 H          8.3473405392       -4.3864043889        0.4430090680
 H          6.6347183871       -4.1244682315        0.1517583259
 H          7.4193702142       -3.3637331807        1.5375840766
 C         -0.0954293715        1.7672889924       -0.8827028743
 H         -0.0296847241        1.2119454356       -1.8236532777
 H         -0.5669935246        2.7281738072       -1.1128593753
 H          0.4649940213        0.8048890332        1.5931903711
 C         -0.5561273156        0.6049356491        1.3054415209
 C         -3.2116870622        0.1011059125        0.5976503900
 C         -1.3830144553       -0.0538066581        2.1903408944
 C         -1.0074487471        1.0262338950        0.0578715271
 C         -2.3574863678        0.7729382199       -0.3167807053
 C         -2.7270781028       -0.3203735778        1.8623464424
 C         -4.5602164409       -0.1489850668        0.2586847290
 C         -7.2859430259       -0.6366099173       -0.4244514220
 C         -5.4196795728       -0.8123581889        1.1689189593
 C         -5.0772415769        0.2631317952       -0.9920756442
 C         -6.4310233657        0.0101414391       -1.3075826768
 C         -6.7626022391       -1.0404387240        0.8042408253
 H         -6.7882242741        0.3403054568       -2.2698723710
 H         -7.3943079644       -1.5474166298        1.5179758204
 C         -2.9008434870        1.1674379167       -1.5637173755
 H         -2.2776639734        1.6762033467       -2.2822070216
 C         -4.2110152695        0.9228456348       -1.8895112237
 H         -4.5944694930        1.2402926058       -2.8477221462
 C         -3.5979013670       -0.9839561498        2.7549516509
 H         -3.2156866635       -1.3002493231        3.7139385529
 C         -4.9075604989       -1.2238460927        2.4197409925
 H         -5.5615701772       -1.7300955483        3.1138263297
 C         -8.7431636797       -0.9142759640       -0.7410214865
 C         -9.6166679991       -0.2139741152        0.3116136176
 H         -9.4358604514        0.8587291740        0.3049742387
 H         -9.4261348833       -0.5887438756        1.3134598257
 H        -10.6649866352       -0.3851478957        0.0845202994
 C         -8.9786728530       -2.4319053437       -0.6883896434
 H        -10.0135621928       -2.6467253400       -0.9387377930
 H         -8.7820500538       -2.8404710586        0.2989387790
 H         -8.3400670282       -2.9422844650       -1.4061716652
 C         -9.1495243014       -0.4068782431       -2.1255097358
 H        -10.1988548183       -0.6319316794       -2.2952106156
 H         -8.5774972831       -0.8962333561       -2.9107791134
 H         -9.0282703532        0.6712905791       -2.2037415858
 H         -1.0050135512       -0.3661767247        3.1520630600
