77
       -105.32173910
 H          0.3448656646        4.1833938381        0.5863399122
 C          1.0577718105        3.3710754858        0.5802061824
 C          2.9726636002        1.3432259569        0.5397963217
 C          1.0297981722        2.4465159356       -0.4649278540
 C          1.9885096386        3.3001126976        1.5931980986
 C          2.9758195962        2.2939544900        1.5924873586
 C          1.9877024191        1.3963633906       -0.4835690561
 H          1.9849702550        4.0345171194        2.3843402151
 C          3.9832741272        0.3566689030        0.5014202516
 C          6.0651746702       -1.5888933903        0.3769263725
 C          4.0234962789       -0.5944774779       -0.5452578693
 C          4.9891410371        0.3182136855        1.4986983630
 C          6.0055746742       -0.6547376173        1.4123265519
 C          5.0638920527       -1.5495814033       -0.5839882864
 H          6.7605473801       -0.6577084686        2.1839749003
 H          5.0620423588       -2.2552074259       -1.3992219742
 C          3.9731462848        2.2262818680        2.5898803575
 H          3.9583813460        2.9520991562        3.3890886337
 C          4.9552500726        1.2675400113        2.5446068477
 H          5.7188458144        1.2362198144        3.3072983324
 C          2.0372985972        0.4145474535       -1.5019157725
 H          1.2863715766        0.4199879543       -2.2753739073
 C          3.0167778621       -0.5445995073       -1.5331702811
 H          3.0324005264       -1.2725461816       -2.3306249050
 C          7.2059436874       -2.5878724180        0.3407953395
 C          7.1790344051       -3.4206267280        1.6319570667
 H          7.3237012880       -2.8065484354        2.5163311571
 H          7.9765598390       -4.1574995393        1.6036121979
 H          6.2310932607       -3.9458041183        1.7276811058
 C          8.5294713689       -1.8121566897        0.2487206914
 H          8.6862628025       -1.1704839440        1.1113601780
 H          8.5486300574       -1.1951450811       -0.6470595093
 H          9.3575848546       -2.5133159110        0.1986863594
 C          7.1150017995       -3.5386710477       -0.8536718132
 H          7.1624789630       -2.9968395344       -1.7957353935
 H          6.2038575695       -4.1320568209       -0.8199364148
 H          7.9559606522       -4.2261418789       -0.8282765780
 C          0.0790019518        2.6812511513       -1.6077566068
 H          0.6888008781        2.8972560334       -2.4912142164
 H         -0.4965327867        3.5868044341       -1.3893628910
 H         -0.1764036468        1.4827989752       -3.9837940464
 C         -0.9248341490        1.1342083408       -3.2863232279
 C         -2.9308254042        0.2902119870       -1.5414300085
 C         -1.8856780114        0.2511960919       -3.7339412372
 C         -0.9114487364        1.6096008484       -1.9767771240
 C         -1.9181526915        1.1696410925       -1.0712097744
 C         -2.9165417959       -0.1821737739       -2.8786876453
 C         -3.9854060736       -0.0997637134       -0.6856923955
 C         -6.1563451831       -0.8244160661        1.0168864627
 C         -5.0183743968       -0.9499254790       -1.1549538587
 C         -4.0418925006        0.3707599315        0.6464874092
 C         -5.1261641690       -0.0028747006        1.4687405908
 C         -6.0801884776       -1.2938499770       -0.2902135315
 H         -5.1425478829        0.3777090902        2.4788717652
 H         -6.8499623934       -1.9396792390       -0.6814011298
 C         -1.9854145414        1.5997220517        0.2746340135
 H         -1.2144336925        2.2471075377        0.6602791958
 C         -3.0082122229        1.2164875434        1.1041582484
 H         -3.0369184640        1.5717144077        2.1235180200
 C         -3.9422849285       -1.0467684553       -3.3221651899
 H         -3.9147191586       -1.4050483505       -4.3403526299
 C         -4.9660644704       -1.4189064289       -2.4858532231
 H         -5.7493185059       -2.0702719725       -2.8436246794
 C         -7.3067485714       -1.1640065966        1.9461676265
 C         -8.3386411908       -2.0835554440        1.2907585690
 H         -9.1345962825       -2.2910144385        2.0007111530
 H         -7.8970525787       -3.0357349175        1.0051152847
 H         -8.7908932985       -1.6147609214        0.4196589157
 C         -8.0058675689        0.1431200963        2.3512625800
 H         -7.3386585260        0.8101341622        2.8904756051
 H         -8.8494585159       -0.0815254451        2.9975604266
 H         -8.3784028896        0.6648769235        1.4724137422
 C         -6.7498402348       -1.8674264039        3.1932893063
 H         -6.0681168464       -1.2302302554        3.7498416238
 H         -6.2228078341       -2.7774174254        2.9146823073
 H         -7.5692780481       -2.1366324787        3.8534481799
 H         -1.8681842482       -0.0937526765       -4.7567116188
