77
       -105.32174555
 H          0.6452387541        4.7458249046        0.2734245725
 C          1.2520432349        3.8589899155        0.1616962362
 C          2.8594523385        1.5945839502       -0.1154817519
 C          1.0207011935        2.7663941314        1.0005544032
 C          2.2417798847        3.8463728844       -0.7951137152
 C          3.0723166609        2.7177796323       -0.9556659408
 C          1.8308184261        1.6057932035        0.8651520686
 H          2.3988734621        4.7100009803       -1.4232884611
 C          3.7006297112        0.4672590140       -0.2476706135
 C          5.4098373322       -1.8020627052       -0.4952450876
 C          3.5298519023       -0.6620257883        0.5873181866
 C          4.7416795853        0.4554894223       -1.2089923516
 C          5.5712463518       -0.6794917697       -1.3092022144
 C          4.3884226330       -1.7747433592        0.4443401728
 H          6.3575435852       -0.6594681530       -2.0486065892
 H          4.2273864139       -2.6153692041        1.0999668566
 C          4.1114555320        2.6861416801       -1.9107940880
 H          4.2625052841        3.5487125956       -2.5423844650
 C          4.9252007673        1.5868010853       -2.0354046623
 H          5.7200533550        1.5800333819       -2.7660968255
 C          1.6837776700        0.4618440315        1.6849644000
 H          0.9119958404        0.4507137202        2.4388019526
 C          2.5001976231       -0.6313958144        1.5523653717
 H          2.3660976052       -1.4856477907        2.1991218966
 C          6.3438732949       -2.9849858501       -0.6651875353
 C          6.0183626506       -4.1312846867        0.2935509889
 H          6.1235170549       -3.8222955312        1.3311431950
 H          6.7137886011       -4.9484041724        0.1228769619
 H          5.0136416150       -4.5140655099        0.1272410780
 C          7.7823714930       -2.5159223686       -0.3973651094
 H          7.8725109170       -2.1183655305        0.6111789184
 H          8.0977560693       -1.7486004860       -1.0988477943
 H          8.4617163753       -3.3578648386       -0.4949509470
 C          6.2244608671       -3.5048230661       -2.1064144010
 H          5.2009817823       -3.8057099372       -2.3202250120
 H          6.8685141703       -4.3702035190       -2.2333775809
 H          6.5232027331       -2.7570909148       -2.8356660402
 C          0.0049197023        2.9149458318        2.0974345987
 H         -0.5494264536        3.8448600448        1.9261657171
 H          0.5626664783        3.0548544064        3.0306297797
 H         -0.6212696080        1.7729400494        4.4220692590
 C         -1.2351823365        1.3870292848        3.6212267303
 C         -2.8629281355        0.4061962696        1.5772877054
 C         -2.2252478299        0.4759603257        3.9217743593
 C         -1.0135818688        1.8330615544        2.3187043511
 C         -1.8363814270        1.3385347354        1.2669710792
 C         -3.0633466661       -0.0341127680        2.9108128122
 C         -3.7140576164       -0.0763613607        0.5579536385
 C         -5.4443749655       -1.0369145060       -1.4956918655
 C         -4.7520655453       -0.9937366228        0.8593460482
 C         -3.5553547566        0.3597863588       -0.7776962612
 C         -4.4251866972       -0.1298371958       -1.7750102574
 C         -5.5927692372       -1.4543527683       -0.1769634994
 H         -4.2805131203        0.2261646516       -2.7838445649
 H         -6.3714894770       -2.1515523565        0.0879094185
 C         -1.7011674636        1.7553465493       -0.0776105198
 H         -0.9308971554        2.4661050756       -0.3338615674
 C         -2.5284638555        1.2853667214       -1.0649520630
 H         -2.4045293192        1.6293215147       -2.0810152965
 C         -4.1004062429       -0.9509888224        3.1916710694
 H         -4.2429086125       -1.2766528850        4.2112066312
 C         -4.9221155401       -1.4186352264        2.1952493222
 H         -5.7139729841       -2.1149192150        2.4274272451
 C         -6.3412185146       -1.5254462885       -2.6179930858
 C         -5.4699650128       -2.2090955236       -3.6831661656
 H         -4.7535101843       -1.5218979263       -4.1249185937
 H         -6.1029293856       -2.5893173947       -4.4797126887
 H         -4.9252939557       -3.0459682133       -3.2511371058
 C         -7.0645273573       -0.3163958178       -3.2303901442
 H         -7.6627649937        0.1919620355       -2.4774818934
 H         -7.7274327657       -0.6529750346       -4.0222731570
 H         -6.3681486968        0.3998069261       -3.6580005277
 C         -7.3915082374       -2.5274649573       -2.1353804829
 H         -6.9274238900       -3.4152826564       -1.7114015021
 H         -7.9967513716       -2.8452743034       -2.9799260412
 H         -8.0600712290       -2.0798942758       -1.4035447417
 H         -2.3734506523        0.1554963614        4.9418508165
