77
       -105.32173046
 H          0.5357562583        4.5895033119        0.2074808910
 C          1.1784016651        3.7228671178        0.2660903278
 C          2.8904294402        1.5239862464        0.4079915952
 C          1.0466706917        2.7122173522       -0.6851512871
 C          2.1192344184        3.6603796022        1.2722363289
 C          3.0008829034        2.5658386643        1.3642410862
 C          1.9075342453        1.5801870334       -0.6169265833
 H          2.1980370497        4.4634511862        1.9892667851
 C          3.7897554694        0.4359203420        0.4691247000
 C          5.6328336951       -1.7386546479        0.5678699240
 C          3.7204181701       -0.6085804458       -0.4814434642
 C          4.7895464372        0.3820669261        1.4728355039
 C          5.6879056817       -0.7066933327        1.4990557614
 C          4.6433019971       -1.6736511053       -0.4100963399
 H          6.4362169762       -0.7146392986        2.2753459854
 H          4.5653639656       -2.4537826566       -1.1522267903
 C          3.9963224105        2.4898323067        2.3636255905
 H          4.0679463724        3.2888376032        3.0863189120
 C          4.8674193342        1.4292333105        2.4169647361
 H          5.6284539715        1.3903267145        3.1818631314
 C          1.8554684944        0.5156661535       -1.5466300371
 H          1.1131424545        0.5353905737       -2.3289672063
 C          2.7280885939       -0.5403077520       -1.4834998802
 H          2.6682094176       -1.3331771532       -2.2141400430
 C          6.5986044916       -2.9089565760        0.5803252131
 C          7.3618894689       -2.9295395888       -0.7527946133
 H          8.0759957485       -3.7479863509       -0.7495676066
 H          7.9088549761       -1.9999126633       -0.8938011803
 H          6.6963274628       -3.0693287142       -1.6002656961
 C          5.7963949470       -4.2091627478        0.7443640471
 H          5.1085567552       -4.3692893280       -0.0814267087
 H          5.2261912012       -4.1914943587        1.6707252611
 H          6.4784595891       -5.0536922356        0.7800252835
 C          7.6146116858       -2.8188459706        1.7203453731
 H          8.2307483872       -1.9268358016        1.6325012898
 H          8.2767181899       -3.6793058845        1.6778047834
 H          7.1240916131       -2.8298979816        2.6911782440
 C          0.0891317737        2.9216841854       -1.8247610750
 H          0.6940349151        3.1186657616       -2.7169372132
 H         -0.4816022347        3.8358281421       -1.6265055004
 H         -0.3399681517        1.8471780853       -4.2274159752
 C         -1.0216423669        1.4436274106       -3.4926018008
 C         -2.8321471006        0.4290902257       -1.6273530908
 C         -1.9923298204        0.5549983156       -3.9043433376
 C         -0.9080002915        1.8491142463       -2.1635906952
 C         -1.8194112828        1.3301844987       -1.2006359657
 C         -2.9236361482        0.0322253908       -2.9861016608
 C         -3.7795421539       -0.0628434880       -0.7016869364
 C         -5.7162501780       -1.0252154158        1.1580024056
 C         -4.8083412230       -0.9432773597       -1.1215992223
 C         -3.7293653386        0.3295881881        0.6558271178
 C         -4.6990321946       -0.1610889849        1.5559128162
 C         -5.7529983649       -1.4053140443       -0.1796339999
 H         -4.6350162827        0.1603577364        2.5845067079
 H         -6.5223420765       -2.0725423967       -0.5339982117
 C         -1.7881823025        1.6961573252        0.1651387257
 H         -1.0241774863        2.3742770482        0.5114403827
 C         -2.7075895699        1.2153678340        1.0618264160
 H         -2.6620148231        1.5211050068        2.0964806380
 C         -3.9493308394       -0.8537173965       -3.3842334214
 H         -4.0063988174       -1.1488003345       -4.4212947270
 C         -4.8670460618       -1.3279624979       -2.4790123311
 H         -5.6502239577       -1.9978426126       -2.8009628444
 C         -6.7304533340       -1.5088626226        2.1777644345
 C         -7.7682249621       -2.4541452325        1.5699011905
 H         -7.3010417612       -3.3493725911        1.1654303190
 H         -8.3464885581       -1.9606310325        0.7920449925
 H         -8.4626120613       -2.7680917983        2.3443887893
 C         -7.4621605293       -0.2890305619        2.7582457824
 H         -7.9660942831        0.2648698462        1.9692492763
 H         -6.7830241901        0.3854535510        3.2726330795
 H         -8.2098785239       -0.6205747987        3.4729434000
 C         -5.9880524539       -2.2554459001        3.2968816240
 H         -5.4380004740       -3.1019398154        2.8913006968
 H         -6.7059986447       -2.6306258266        4.0204161206
 H         -5.2898172239       -1.6098726046        3.8225989512
 H         -2.0558074653        0.2666028478       -4.9426426895
