77
       -105.32631632
 H          0.8224380246        4.0851406472        0.5668198523
 C          1.5983785704        3.3385496767        0.4846408598
 C          3.6243581153        1.4273583981        0.2830389924
 C          1.2875665652        2.0069680214        0.7369103822
 C          2.8766230115        3.7362390205        0.1457080562
 C          3.9199618232        2.7954227030        0.0515168214
 C          2.3055837791        1.0180966817        0.6146992285
 H          3.0881959133        4.7787744540       -0.0376120135
 C          4.6603714733        0.4718937661        0.1857953823
 C          6.7556608802       -1.4539700097        0.0110657255
 C          4.3942075502       -0.8994390288        0.4039097983
 C          5.9839615375        0.8722081254       -0.1265581048
 C          7.0025921374       -0.1027411432       -0.2059289789
 C          5.4488682218       -1.8323017717        0.3117390264
 H          7.9980355481        0.2369464744       -0.4431904710
 H          5.2142162929       -2.8715400936        0.4860287110
 C          5.2443503978        3.1748128195       -0.2636001130
 H          5.4576264481        4.2192185343       -0.4356010669
 C          6.2488606810        2.2414731464       -0.3471749679
 H          7.2564599141        2.5492744704       -0.5834004224
 C          2.0646903703       -0.3627948091        0.8106966948
 H          1.0663632006       -0.7024107116        1.0389735312
 C          3.0714517539       -1.2886798564        0.7082481486
 H          2.8585066842       -2.3355040225        0.8660050573
 C          7.8420522168       -2.5105981274       -0.0621870778
 C          7.9502206453       -3.1940429076        1.3097748241
 H          8.1971872042       -2.4663994400        2.0797835750
 H          8.7376079451       -3.9417301559        1.2817323934
 H          7.0254303442       -3.6911007457        1.5900117890
 C          9.2076811969       -1.9235722323       -0.4226037294
 H          9.9408734022       -2.7243217268       -0.4652403853
 H          9.5439115194       -1.2111125221        0.3273155752
 H          9.1879924648       -1.4438346307       -1.3986843484
 C          7.4580947205       -3.5440511785       -1.1323905521
 H          7.3385474025       -3.0636568469       -2.1011086066
 H          6.5344220278       -4.0609136467       -0.8869807312
 H          8.2447504392       -4.2883509689       -1.2158932079
 C         -0.1039685693        1.6607808134        1.1772370853
 H         -0.5778830072        2.5724665805        1.5556471615
 H         -0.0539844573        0.9574389272        2.0145427114
 H          0.4698283350        1.1926320176       -1.4348350155
 C         -0.5461585789        0.9209158504       -1.1910231543
 C         -3.1896301196        0.2405734115       -0.5939106375
 C         -1.3620533207        0.4236092397       -2.1849291464
 C         -1.0024372867        1.0903116817        0.1130878960
 C         -2.3467427390        0.7459326400        0.4313849293
 C         -2.6995345434        0.0726567790       -1.9143570353
 C         -4.5324665702       -0.0940843787       -0.3098162484
 C         -7.2475531600       -0.7504333590        0.2656678440
 C         -5.3809581620       -0.5923380523       -1.3291707741
 C         -5.0548522806        0.0681231252        0.9949062884
 C         -6.4031246328       -0.2641164310        1.2553447725
 C         -6.7188089551       -0.9092901979       -1.0156884057
 H         -6.7646305457       -0.1256170510        2.2616733257
 H         -7.3421347565       -1.2866141808       -1.8123082842
 C         -2.8952360118        0.8913498497        1.7289381407
 H         -2.2808946772        1.2702280749        2.5304503918
 C         -4.1999775741        0.5658012785        2.0010673899
 H         -4.5879307823        0.6923875720        3.0007751174
 C         -3.5592168379       -0.4296868902       -2.9163908771
 H         -3.1730394326       -0.5538024218       -3.9170221452
 C         -4.8632747684       -0.7534723676       -2.6338765745
 H         -5.5087022729       -1.1338454144       -3.4113874799
 C         -8.6994339874       -1.1065138693        0.5225795669
 C         -9.5852559751       -0.2339798433       -0.3804599333
 H         -9.3907187416       -0.4109165033       -1.4346710665
 H         -9.4203987904        0.8209709651       -0.1721356100
 H        -10.6305083873       -0.4604340544       -0.1906951829
 C         -9.1111840976       -0.8752567956        1.9773940766
 H        -10.1563503980       -1.1453752023        2.1006595151
 H         -9.0074435686        0.1707983648        2.2571425605
 H         -8.5295889520       -1.4941096294        2.6571646749
 C         -8.9116665993       -2.5905099776        0.1850821455
 H         -8.7091285888       -2.8033502649       -0.8608933529
 H         -9.9431184568       -2.8640132400        0.3878962478
 H         -8.2652229926       -3.2170129382        0.7959264417
 H         -0.9804925985        0.3057873052       -3.1878776579
