77
       -105.32171318
 H          0.4137470625        4.3624255600        0.2846111507
 C          1.1024073473        3.5309520147        0.3326030314
 C          2.9465386244        1.4402834315        0.4382580470
 C          1.0358625358        2.5339189026       -0.6388498686
 C          2.0402974996        3.5047832247        1.3436015452
 C          2.9901142174        2.4677395102        1.4151158269
 C          1.9598636307        1.4521375792       -0.5845821166
 H          2.0669928684        4.2966056258        2.0768303810
 C          3.9175523763        0.4145156358        0.4753403116
 C          5.9154484936       -1.6209339130        0.5143908738
 C          3.9143208040       -0.6142205113       -0.4947383668
 C          4.9250517581        0.4108449869        1.4727587005
 C          5.9015872388       -0.6087876367        1.4684085521
 C          4.9120713038       -1.6112722836       -0.4516645976
 H          6.6550757368       -0.5780789883        2.2390944251
 H          4.8821658670       -2.3820728959       -1.2069580904
 C          3.9904081219        2.4376645848        2.4123251737
 H          4.0084556484        3.2230999593        3.1529910900
 C          4.9334101961        1.4395627275        2.4400060855
 H          5.6983768599        1.4369262310        3.2019624157
 C          1.9692958672        0.3987357512       -1.5284716864
 H          1.2191372710        0.3783670974       -2.3028169400
 C          2.9100931211       -0.5983504788       -1.4870266641
 H          2.8961157627       -1.3832765604       -2.2285104076
 C          6.9670400479       -2.7147542603        0.4927608548
 C          7.6963052967       -2.6720969568       -0.8586871981
 H          8.4716984693       -3.4325820440       -0.8767934147
 H          8.1660027106       -1.7023910441       -1.0084631143
 H          7.0237429836       -2.8612733164       -1.6908699323
 C          6.2675316034       -4.0717090053        0.6673516777
 H          5.5664253877       -4.2733572317       -0.1380499799
 H          5.7276616079       -4.1039145579        1.6113520260
 H          7.0100040686       -4.8644842019        0.6718905640
 C          8.0028804047       -2.5549251975        1.6070825720
 H          8.5420894630       -1.6148048463        1.5139463013
 H          8.7308283588       -3.3585154480        1.5365461291
 H          7.5419199291       -2.6158832233        2.5904233682
 C          0.0825236145        2.7125024011       -1.7886826774
 H          0.6907750592        2.8874187633       -2.6826217979
 H         -0.4923754714        3.6282490140       -1.6136725853
 H         -0.2391496041        1.4743496211       -4.1325243859
 C         -0.9630282304        1.1319683396       -3.4068030170
 C         -2.8949544501        0.2893741398       -1.5790601764
 C         -1.9307063903        0.2348824078       -3.8084685714
 C         -0.9098335491        1.6271284198       -2.1052150463
 C         -1.8790644844        1.1899025115       -1.1584075026
 C         -2.9248394539       -0.1987211981       -2.9104707841
 C         -3.9081091825       -0.1081545750       -0.6779678527
 C         -5.9875629342       -0.8633955284        1.1225646851
 C         -4.9439382036       -0.9809558681       -1.0965937359
 C         -3.9188909227        0.3752445813        0.6507723084
 C         -4.9580141121       -0.0146409068        1.5223051095
 C         -5.9603104747       -1.3389168958       -0.1843240643
 H         -4.9390831096        0.3743984409        2.5291526043
 H         -6.7337322845       -2.0020090438       -0.5375817482
 C         -1.9044526338        1.6401697590        0.1822030571
 H         -1.1334710889        2.3102091179        0.5276784151
 C         -2.8863685360        1.2487315482        1.0560262665
 H         -2.8830100708        1.6180905022        2.0707442737
 C         -3.9551206530       -1.0812609856       -3.3049285469
 H         -3.9630301348       -1.4487844513       -4.3201593159
 C         -4.9389348280       -1.4603488120       -2.4247875902
 H         -5.7260428288       -2.1264452294       -2.7449973480
 C         -7.0841383541       -1.2267570364        2.1063604508
 C         -8.1224908698       -2.1745142928        1.5034026852
 H         -7.6709507529       -3.1161256223        1.1988636071
 H         -8.6280563193       -1.7203218807        0.6541659677
 H         -8.8777145010       -2.3997619487        2.2513945437
 C         -7.7957341936        0.0635532916        2.5418245322
 H         -8.6014930045       -0.1801744756        3.2282209486
 H         -8.2229684177        0.5730278327        1.6808719762
 H         -7.1206642315        0.7488626037        3.0472248341
 C         -6.4497118152       -1.9118230394        3.3265538975
 H         -5.9097474983       -2.8065298986        3.0240835524
 H         -7.2294024410       -2.2038119083        4.0241002968
 H         -5.7618913555       -1.2539523162        3.8506604730
 H         -1.9458755759       -0.1240537246       -4.8264348128
