77
       -105.32157413
 H          0.6874262200        4.8098070211        0.4960137217
 C          1.2766440222        3.9174576030        0.3425410757
 C          2.8340217791        1.6342293398       -0.0455694499
 C          1.0232845780        2.7915836561        1.1297020763
 C          2.2644790589        3.9288038334       -0.6160827665
 C          3.0682721356        2.7903534240       -0.8338809626
 C          1.8112888485        1.6230285210        0.9411360152
 H          2.4389956510        4.8173993184       -1.2034965794
 C          3.6469561895        0.4947438729       -0.2367846531
 C          5.2926333817       -1.8039024763       -0.6104654248
 C          3.4548174551       -0.6679138258        0.5461014680
 C          4.6795942881        0.5026552954       -1.2071930567
 C          5.4772081771       -0.6477094881       -1.3706891317
 C          4.2824153559       -1.7943450177        0.3414563679
 H          6.2570427920       -0.6127365864       -2.1163485515
 H          4.1060696129       -2.6604802688        0.9588167237
 C          4.1009648069        2.7794685973       -1.7963547287
 H          4.2696571984        3.6675210119       -2.3868247414
 C          4.8860088146        1.6675437612       -1.9798293404
 H          5.6753941731        1.6761516857       -2.7164022337
 C          1.6459847433        0.4478726568        1.7117312525
 H          0.8822117690        0.4214986020        2.4734836961
 C          2.4356157956       -0.6566071123        1.5226429487
 H          2.2879047352       -1.5354377964        2.1324382473
 C          6.1895208172       -3.0033180713       -0.8504020279
 C          5.8478425293       -4.1824399318        0.0617796206
 H          4.8304467807       -4.5303982459       -0.1040009807
 H          5.9780659768       -3.9231791409        1.1100898514
 H          6.5176202820       -5.0094350378       -0.1570674187
 C          7.6458339490       -2.5886580965       -0.5898794436
 H          8.2974347495       -3.4456856911       -0.7341423199
 H          7.7651985717       -2.2361550167        0.4322757106
 H          7.9728578839       -1.8029100015       -1.2650856675
 C          6.0282212237       -3.4527666140       -2.3111675386
 H          4.9931321242       -3.7172716895       -2.5171638504
 H          6.6466643265       -4.3273917195       -2.4910403867
 H          6.3319614763       -2.6795567311       -3.0112523587
 C          0.0055959163        2.9083996317        2.2280236188
 H         -0.5465727686        3.8444865512        2.0843141599
 H          0.5612350954        3.0200995710        3.1664509682
 H         -0.6698995154        1.7458804412        4.5260044357
 C         -1.2644483670        1.3647166550        3.7085446575
 C         -2.8383214840        0.3910736087        1.6193051079
 C         -2.2563663104        0.4463748077        3.9787765661
 C         -1.0157539744        1.8231800547        2.4151038490
 C         -1.8132520694        1.3350378270        1.3409230340
 C         -3.0666868654       -0.0615815011        2.9442188498
 C         -3.6595577350       -0.0918770139        0.5759046389
 C         -5.3253564967       -1.0583056233       -1.5276633488
 C         -4.6952391984       -1.0218862571        0.8448870532
 C         -3.4720745184        0.3553028360       -0.7523265120
 C         -4.3095190813       -0.1383575190       -1.7749662603
 C         -5.5039432941       -1.4848018828       -0.2155590888
 H         -4.1421694103        0.2249139024       -2.7776771488
 H         -6.2820353993       -2.1914802017        0.0249147381
 C         -1.6527725067        1.7670468979        0.0040111247
 H         -0.8869083004        2.4911665098       -0.2272044738
 C         -2.4503611406        1.2960503472       -1.0068813701
 H         -2.3068103180        1.6509374753       -2.0165780050
 C         -4.1024881967       -0.9889677193        3.1930916406
 H         -4.2673934759       -1.3228457323        4.2065747130
 C         -4.8948835007       -1.4570967076        2.1733646631
 H         -5.6858397582       -2.1620687230        2.3811078343
 C         -6.1852818725       -1.5517029132       -2.6764483499
 C         -6.8953264596       -0.3475062418       -3.3132103207
 H         -7.5161812736        0.1613562087       -2.5792111698
 H         -7.5347182155       -0.6892901919       -4.1220128837
 H         -6.1901187987        0.3697095822       -3.7242680149
 C         -7.2450708580       -2.5583653715       -2.2253311842
 H         -7.9356126541       -2.1141851126       -1.5120726610
 H         -6.7901796630       -3.4452726578       -1.7896921522
 H         -7.8249117065       -2.8770112724       -3.0871991246
 C         -5.2772033314       -2.2322427817       -3.7125588262
 H         -4.5480550193       -1.5426033874       -4.1291278308
 H         -5.8822442148       -2.6133192088       -4.5301195940
 H         -4.7451054325       -3.0681120825       -3.2632485166
 H         -2.4263429562        0.1167895655        4.9925219441
