77
       -105.32157669
 H          0.6888360378        4.8269957155        0.2515948784
 C          1.2741996555        3.9203341666        0.2999452817
 C          2.8219642001        1.6011113807        0.4214778341
 C          1.0642245228        2.9235832846       -0.6559805912
 C          2.2148335648        3.7876953997        1.2962050639
 C          3.0126243709        2.6276431235        1.3821084824
 C          1.8477988903        1.7381176062       -0.6041607459
 H          2.3567645437        4.5794458185        2.0159955248
 C          3.6301997756        0.4439508344        0.4813882334
 C          5.2668237252       -1.8886901012        0.5907746296
 C          3.4814200569       -0.5899282482       -0.4728430754
 C          4.6150016750        0.3060520532        1.4909662986
 C          5.4092636493       -0.8577767522        1.5212092128
 C          4.3035309838       -1.7362367319       -0.3969639559
 H          6.1522270786       -0.9351178652        2.3005651299
 H          4.1611513340       -2.5013262750       -1.1431464062
 C          3.9979662284        2.4723304446        2.3810705132
 H          4.1338934846        3.2630806126        3.1035558246
 C          4.7785561293        1.3436257928        2.4360767537
 H          5.5316030951        1.2415048139        3.2030414515
 C          1.7252662754        0.6899800297       -1.5467914380
 H          0.9990194059        0.7781311927       -2.3399497403
 C          2.5102261032       -0.4321490673       -1.4849798413
 H          2.3961686734       -1.2109595766       -2.2242099720
 C          6.1566953874       -3.1126161409        0.6942093995
 C          5.9282794160       -3.7716575913        2.0636505570
 H          4.8856533924       -4.0603936716        2.1792818466
 H          6.1956082634       -3.1108882284        2.8834953315
 H          6.5409283713       -4.6651506533        2.1419137216
 C          7.6218456428       -2.6677851432        0.5671503048
 H          7.9126585400       -1.9901782324        1.3649801368
 H          7.7881650164       -2.1696503009       -0.3854811060
 H          8.2697820461       -3.5382706225        0.6153703851
 C          5.8640358439       -4.1438866295       -0.3966513198
 H          4.8414113343       -4.5096685645       -0.3326295480
 H          6.5262119900       -4.9958785630       -0.2699599694
 H          6.0429645458       -3.7337161581       -1.3880495714
 C          0.0998443012        3.2036443984       -1.7727789904
 H          0.6993102773        3.4505072564       -2.6568273871
 H         -0.4625040359        4.1099934565       -1.5196327147
 H         -0.4590623652        2.3926923901       -4.2463543208
 C         -1.0908071888        1.8975452247       -3.5233424550
 C         -2.7597338962        0.6327804262       -1.6780808651
 C         -2.0647141904        1.0317311411       -3.9729833892
 C         -0.9067877904        2.1606397097       -2.1661701551
 C         -1.7532211908        1.5226478400       -1.2150349267
 C         -2.9219450169        0.3799866450       -3.0645234803
 C         -3.6283923140        0.0044771625       -0.7577413749
 C         -5.3895818165       -1.2553599045        1.0983149581
 C         -4.6459343637       -0.8730231466       -1.2099692891
 C         -3.5071900546        0.2515142507        0.6291967880
 C         -4.3908933566       -0.3844205789        1.5266773984
 C         -5.5028564899       -1.4842081023       -0.2692340910
 H         -4.2737140366       -0.1726040032        2.5787264133
 H         -6.2653984652       -2.1457567783       -0.6480923745
 C         -1.6593465389        1.7534922127        0.1769557802
 H         -0.9085439613        2.4335673982        0.5486341958
 C         -2.5029320679        1.1417794760        1.0680610236
 H         -2.4098510801        1.3444000469        2.1246215695
 C         -3.9406496995       -0.4978061522       -3.4965079931
 H         -4.0550250372       -0.6789480661       -4.5547706216
 C         -4.7793828738       -1.1080974191       -2.5959870069
 H         -5.5564195513       -1.7726600352       -2.9428662561
 C         -6.3015459634       -1.9098220207        2.1193861743
 C         -5.4412349975       -2.7377790289        3.0866685195
 H         -4.7359959105       -2.1188315184        3.6346971111
 H         -4.8844647859       -3.4998791188        2.5454653019
 H         -6.0831171201       -3.2333471697        3.8092327808
 C         -7.3340639032       -2.8363323198        1.4747992498
 H         -7.9914033740       -2.2902580335        0.8020483634
 H         -7.9533164219       -3.2765014604        2.2515551393
 H         -6.8549198010       -3.6509010495        0.9360836449
 C         -7.0465864878       -0.8104380285        2.8913651423
 H         -6.3650593039       -0.1632925422        3.4367169477
 H         -7.7224250389       -1.2657067246        3.6095413134
 H         -7.6338591343       -0.1975804064        2.2111628390
 H         -2.1841578263        0.8548866778       -5.0311224733
