77
       -105.32157105
 H          0.7165226315        4.8253429522        0.2621204116
 C          1.2974497180        3.9153673027        0.3006244069
 C          2.8336736084        1.5872786415        0.3965306557
 C          1.0710211251        2.9230759901       -0.6561881010
 C          2.2487675253        3.7741887256        1.2854935234
 C          3.0410716011        2.6094861306        1.3583073123
 C          1.8486160644        1.7331658694       -0.6174145171
 H          2.4033339777        4.5626858084        2.0062492655
 C          3.6360292850        0.4254309645        0.4433450729
 C          5.2605775141       -1.9167113655        0.5263174470
 C          3.4704908540       -0.6044051815       -0.5124981254
 C          4.6315441051        0.2786415074        1.4410995552
 C          5.4194680627       -0.8897502998        1.4584510963
 C          4.2869211977       -1.7555602038       -0.4498119375
 H          6.1708080670       -0.9738813638        2.2290239495
 H          4.1317014145       -2.5173331208       -1.1968228184
 C          4.0369698174        2.4453607832        2.3453148105
 H          4.1856482843        3.2329355015        3.0687554582
 C          4.8117963525        1.3121408117        2.3876338082
 H          5.5730446353        1.2032859890        3.1455246894
 C          1.7094883919        0.6889720658       -1.5620941361
 H          0.9748109585        0.7839233897       -2.3466651575
 C          2.4887297358       -0.4377623744       -1.5129568180
 H          2.3618509418       -1.2134214978       -2.2534104071
 C          6.1445451242       -3.1460345812        0.6155938610
 C          5.8346141041       -4.1712687729       -0.4761996173
 H          6.0051933601       -3.7580170612       -1.4677894476
 H          4.8107595770       -4.5317835381       -0.4027325931
 H          6.4934436465       -5.0273418271       -0.3599959954
 C          5.9265677668       -3.8091284367        1.9847810488
 H          4.8837092745       -4.0930646390        2.1098159214
 H          6.2054234442       -3.1527853259        2.8043468948
 H          6.5354522447       -4.7059735507        2.0535225723
 C          7.6108277044       -2.7091107496        0.4749882078
 H          7.7699415330       -2.2074996764       -0.4770492315
 H          8.2541284918       -3.5835648952        0.5122649652
 H          7.9141183442       -2.0369941405        1.2728111479
 C          0.0954755123        3.2123940558       -1.7608232417
 H          0.6861803346        3.4604264242       -2.6504384430
 H         -0.4597573965        4.1202356995       -1.4974840266
 H         -0.4961675388        2.4167296143       -4.2316686804
 C         -1.1216093443        1.9207068200       -3.5037937722
 C         -2.7743634959        0.6538548852       -1.6454425639
 C         -2.1046838444        1.0616246212       -3.9463293113
 C         -0.9204143092        2.1759360053       -2.1475497609
 C         -1.7584786109        1.5368368292       -1.1897573716
 C         -2.9540797580        0.4090052973       -3.0311533488
 C         -3.6349068647        0.0246338385       -0.7181345302
 C         -5.3797967642       -1.2368900654        1.1521259232
 C         -4.6617024257       -0.8459210724       -1.1628034448
 C         -3.4961770317        0.2638681420        0.6685277751
 C         -4.3720987074       -0.3727602918        1.5731134697
 C         -5.5102503716       -1.4581049071       -0.2151520554
 H         -4.2415319416       -0.1669770877        2.6247815460
 H         -6.2802486501       -2.1141964534       -0.5883784472
 C         -1.6471411088        1.7600461037        0.2021798089
 H         -0.8890023529        2.4349291231        0.5684152828
 C         -2.4828191274        1.1473887839        1.1000584139
 H         -2.3763410653        1.3440618772        2.1564784569
 C         -3.9817851333       -0.4619547976       -3.4555692995
 H         -4.1094707282       -0.6370558300       -4.5133270258
 C         -4.8125860947       -1.0731651494       -2.5483392196
 H         -5.5966803524       -1.7324227874       -2.8894136484
 C         -6.2828260144       -1.8922706978        2.1805240396
 C         -7.0140600873       -0.7932252204        2.9660928791
 H         -7.6063238121       -0.1746000696        2.2955060843
 H         -6.3234273780       -0.1516592907        3.5065663983
 H         -7.6836681017       -1.2488497158        3.6898563156
 C         -5.4152329842       -2.7285745546        3.1340213264
 H         -4.7010600142       -2.1153673950        3.6769095336
 H         -4.8680639699       -3.4905295739        2.5829117505
 H         -6.0510386121       -3.2247585754        3.8615208278
 C         -7.3267717303       -2.8111719296        1.5434886687
 H         -7.9895970724       -2.2589918870        0.8811839856
 H         -7.9387722437       -3.2525725373        2.3252737841
 H         -6.8574610256       -3.6250663685        0.9951785024
 H         -2.2374001847        0.8908302238       -5.0038823832
