77
       -105.32155619
 H          0.3071252542        4.0824090923        0.6161059969
 C          1.0347403571        3.2831999126        0.6068620080
 C          2.9955142363        1.3004107307        0.5537616650
 C          1.0279271519        2.3655274372       -0.4444492608
 C          1.9645037938        3.2246516002        1.6217207046
 C          2.9751032352        2.2421138443        1.6142759876
 C          2.0084635170        1.3365095809       -0.4683552515
 H          1.9434014909        3.9529909978        2.4181922892
 C          4.0323908131        0.3419179262        0.5055233205
 C          6.1738845297       -1.5358624112        0.3534534348
 C          4.0969201911       -0.5985273327       -0.5495654763
 C          5.0413173614        0.3230295105        1.5002562171
 C          6.0872583043       -0.6168571239        1.4004023760
 C          5.1666504769       -1.5199927997       -0.6019504635
 H          6.8438834014       -0.6053138470        2.1703548277
 H          5.1831156450       -2.2177753799       -1.4237510137
 C          3.9738099973        2.1909729475        2.6113525697
 H          3.9396471351        2.9080284935        3.4178423348
 C          4.9817197253        1.2599840819        2.5561209908
 H          5.7465546651        1.2420991629        3.3180056693
 C          2.0797256406        0.3613490430       -1.4918376376
 H          1.3250750082        0.3498434636       -2.2613653006
 C          3.0846770196       -0.5707666502       -1.5326377282
 H          3.1166962461       -1.2933828524       -2.3344466242
 C          7.3490996578       -2.4932330528        0.2989895830
 C          7.3583198876       -3.3445187725        1.5782079683
 H          6.4306299838       -3.9052898224        1.6701022653
 H          7.4843913651       -2.7380490317        2.4706339064
 H          8.1820873232       -4.0512603365        1.5361890814
 C          8.6434533349       -1.6690630808        0.2124156684
 H          8.7812233109       -1.0344812520        1.0835192637
 H          8.6360862796       -1.0390477030       -0.6744613277
 H          9.4960682263       -2.3390594492        0.1487428276
 C          7.2870128398       -3.4295652716       -0.9086837939
 H          6.3988164828       -4.0569460161       -0.8791872256
 H          8.1531014158       -4.0854967934       -0.8974709339
 H          7.3091761280       -2.8727497720       -1.8429356776
 C          0.0765853609        2.5890583537       -1.5897397437
 H          0.6858859723        2.7948230273       -2.4757506795
 H         -0.4981990498        3.4968584720       -1.3797083514
 H         -0.1477691686        1.3282056191       -3.9380183311
 C         -0.9099306879        1.0037211921       -3.2437192541
 C         -2.9582268490        0.2299757455       -1.5159894892
 C         -1.8712183687        0.1178281446       -3.6851515693
 C         -0.9150571513        1.5139180540       -1.9474939617
 C         -1.9424148588        1.1076904711       -1.0492624827
 C         -2.9237879486       -0.2794909007       -2.8391429483
 C         -4.0364467832       -0.1199569051       -0.6724668799
 C         -6.2600835129       -0.7531143795        0.9983483485
 C         -5.0737720112       -0.9654184694       -1.1406358379
 C         -4.1130332341        0.3878601442        0.6449151543
 C         -5.2226975494        0.0583587430        1.4520219303
 C         -6.1620441494       -1.2634258939       -0.2918307115
 H         -5.2533180057        0.4658782303        2.4512634968
 H         -6.9347370595       -1.9063182950       -0.6821094350
 C         -2.0280263997        1.5712282026        0.2843861595
 H         -1.2529954655        2.2135349907        0.6699068838
 C         -3.0733319392        1.2261043217        1.1025655186
 H         -3.1156824792        1.6070173124        2.1121326261
 C         -3.9524572505       -1.1422590759       -3.2796132066
 H         -3.9082932530       -1.5308020939       -4.2860501895
 C         -4.9999037544       -1.4741497821       -2.4558156035
 H         -5.7856022886       -2.1234673879       -2.8119504735
 C         -7.4405655178       -1.0391083961        1.9077097277
 C         -8.4807045558       -1.9481151383        1.2506576439
 H         -8.0592839980       -2.9199908461        1.0035946746
 H         -8.8963579392       -1.4919132838        0.3549441852
 H         -9.3005973965       -2.1129578921        1.9443623654
 C         -8.1146735495        0.2953955553        2.2628607701
 H         -8.4543501795        0.8028481774        1.3625641949
 H         -7.4428070978        0.9597303665        2.7995947397
 H         -8.9777283046        0.1091743389        2.8955357553
 C         -6.9317228181       -1.7241492280        3.1852714700
 H         -6.4205905967       -2.6532299733        2.9423822913
 H         -7.7734106333       -1.9568908406        3.8311461067
 H         -6.2482623213       -1.0895602016        3.7426714759
 H         -1.8383132354       -0.2549771588       -4.6977291449
