77
       -105.32142663
 H          0.6957082788        4.8046756939        0.2795826177
 C          1.2842714759        3.8996426892        0.3193250142
 C          2.8444357784        1.5878543846        0.4219483010
 C          1.0730686944        2.9083903761       -0.6386594278
 C          2.2328382654        3.7660063805        1.3106679706
 C          3.0359225749        2.6109342673        1.3858007193
 C          1.8627878133        1.7240551379       -0.5965427208
 H          2.3748625498        4.5555321865        2.0329501773
 C          3.6596848365        0.4348758020        0.4711589811
 C          5.3154546012       -1.8855918164        0.5626312809
 C          3.5086176236       -0.5940180006       -0.4868965572
 C          4.6535172766        0.2964186637        1.4726866911
 C          5.4583160660       -0.8632103702        1.4951981572
 C          4.3397992940       -1.7321935398       -0.4192022388
 H          6.2042621420       -0.9352761476        2.2704547068
 H          4.2003408030       -2.4987053674       -1.1664744141
 C          4.0296300417        2.4548037630        2.3773184443
 H          4.1665034014        3.2423913607        3.1031216468
 C          4.8169068887        1.3300149931        2.4208683693
 H          5.5760005621        1.2284893004        3.1819356761
 C          1.7374636458        0.6803303240       -1.5424435939
 H          1.0041490877        0.7677193750       -2.3290477415
 C          2.5289012267       -0.4381730020       -1.4916140947
 H          2.4131387193       -1.2144680980       -2.2332370707
 C          6.1710951445       -3.1386619526        0.5792650733
 C          6.9308003534       -3.2356199969       -0.7522920726
 H          7.5681066388       -4.1151449230       -0.7432074865
 H          7.5597078030       -2.3600895200       -0.8975098574
 H          6.2565937022       -3.3198647217       -1.6002344004
 C          5.2512192901       -4.3580666235        0.7474231148
 H          4.6857823328       -4.2847117476        1.6740174389
 H          5.8514455140       -5.2625022530        0.7851118992
 H          4.5507605513       -4.4552100710       -0.0776472049
 C          7.1893369255       -3.1383185491        1.7208435804
 H          6.6984494924       -3.1006566379        2.6908389666
 H          7.8850656022       -2.3071669886        1.6310071893
 H          7.7693594150       -4.0562915349        1.6825005856
 C          0.1036467526        3.1887909713       -1.7513163298
 H          0.6993598573        3.4330711908       -2.6385450726
 H         -0.4554633949        4.0965714096       -1.4963238935
 H         -0.4590469320        2.3670764307       -4.2202365893
 C         -1.0930987662        1.8787319268       -3.4945857056
 C         -2.7696241078        0.6335210479       -1.6431366594
 C         -2.0719495166        1.0162193192       -3.9399032512
 C         -0.9074129222        2.1477112885       -2.1388121157
 C         -1.7567682920        1.5185091396       -1.1844671421
 C         -2.9334829385        0.3747653310       -3.0282654531
 C         -3.6433047137        0.0165910058       -0.7198445995
 C         -5.4176046269       -1.2165600099        1.1417607718
 C         -4.6675959939       -0.8552028558       -1.1678663151
 C         -3.5209468686        0.2702601081        0.6658013003
 C         -4.4114017761       -0.3522730057        1.5660633823
 C         -5.5307151114       -1.4534141092       -0.2244206829
 H         -4.2935185285       -0.1351467172        2.6169518795
 H         -6.2980945099       -2.1111540268       -0.6001306581
 C         -1.6603345905        1.7543586633        0.2065334375
 H         -0.9033459075        2.4291273603        0.5750757278
 C         -2.5090957215        1.1539162431        1.1004742395
 H         -2.4141844976        1.3606260636        2.1560805647
 C         -3.9581506641       -0.4981929707       -3.4559731124
 H         -4.0732186353       -0.6844154259       -4.5132802460
 C         -4.8019035234       -1.0972058613       -2.5525895802
 H         -5.5837719645       -1.7577708874       -2.8962302245
 C         -6.3384290106       -1.8544026352        2.1653720575
 C         -7.0790534767       -0.7411126552        2.9216383293
 H         -7.7604071612       -1.1834226721        3.6426880356
 H         -7.6598218653       -0.1324818401        2.2321062744
 H         -6.3950392612       -0.0920248896        3.4615822561
 C         -5.4892320750       -2.6781857460        3.1458643766
 H         -6.1386423038       -3.1627033482        3.8691957856
 H         -4.7835570963       -2.0585184843        3.6924693402
 H         -4.9339853761       -3.4489933228        2.6155510291
 C         -7.3745481784       -2.7802557494        1.5256152443
 H         -8.0260541187       -2.2363889483        0.8454423553
 H         -7.9993976886       -3.2092326642        2.3041454128
 H         -6.8985854896       -3.6027763179        0.9962276434
 H         -2.1924646177        0.8348119011       -4.9971535081
