77
       -105.32140705
 H          0.7570344066        4.8901059963        0.3155384036
 C          1.3244012541        3.9716008280        0.3527426166
 C          2.8250871927        1.6203329155        0.4525276238
 C          1.0917474548        2.9891522615       -0.6094988969
 C          2.2660016838        3.8106667296        1.3465100847
 C          3.0372260756        2.6339512821        1.4221125594
 C          1.8551989726        1.7873980181       -0.5725008697
 H          2.4251794679        4.5935999668        2.0723675895
 C          3.6069907866        0.4445931882        0.5036839897
 C          5.1869138233       -1.9275120032        0.6066259735
 C          3.4354267916       -0.5755223940       -0.4602814119
 C          4.5862472623        0.2730640200        1.5143958744
 C          5.3532105226       -0.9117469144        1.5425954844
 C          4.2297410628       -1.7393423049       -0.3872203934
 H          6.0885179622       -1.0091243166        2.3252111519
 H          4.0759929923       -2.4980664195       -1.1396144111
 C          4.0187588412        2.4465614088        2.4202249133
 H          4.1730913771        3.2279672648        3.1491968283
 C          4.7720841931        1.2988312415        2.4669638472
 H          5.5211269153        1.1726770325        3.2342811809
 C          1.7131705635        0.7545003577       -1.5277950464
 H          0.9931847761        0.8682056261       -2.3234958204
 C          2.4727885468       -0.3857031907       -1.4756645499
 H          2.3444748594       -1.1535673552       -2.2239689874
 C          5.9987860971       -3.2092504567        0.6317650773
 C          6.9967102867       -3.2485808230        1.7904710164
 H          6.4908339133       -3.1950372321        2.7520086788
 H          7.7238583484       -2.4433485113        1.7149500517
 H          7.5433547377       -4.1870805020        1.7594450201
 C          6.7770330369       -3.3268954758       -0.6873230032
 H          7.4388727648       -2.4735557101       -0.8173312460
 H          6.1145820911       -3.3830466845       -1.5467851178
 H          7.3825647904       -4.2285060853       -0.6721846975
 C          5.0349392798       -4.3969958868        0.7789685306
 H          4.4559153299       -4.3073011343        1.6957053166
 H          5.6031456336       -5.3215582105        0.8238870383
 H          4.3464325304       -4.4677042189       -0.0587587750
 C          0.1249415677        3.2935161524       -1.7175801790
 H          0.7220272963        3.5497234698       -2.6006793728
 H         -0.4289511551        4.2006238497       -1.4484432477
 H         -0.4799761096        2.5632308981       -4.2023902981
 C         -1.0990233261        2.0438074452       -3.4855069768
 C         -2.7294195998        0.7156304444       -1.6504701566
 C         -2.0771554178        1.1911125050       -3.9447744532
 C         -0.8917162219        2.2649145467       -2.1217976960
 C         -1.7199184835        1.5973000476       -1.1780202623
 C         -2.9158053538        0.5055647455       -3.0412019739
 C         -3.5760289709        0.0518204398       -0.7347917438
 C         -5.2832775675       -1.2840517483        1.1178066179
 C         -4.5938588235       -0.8188855483       -1.1974263070
 C         -3.4319625676        0.2543504140        0.6579615162
 C         -4.2895024080       -0.4195611750        1.5557694979
 C         -5.4226748244       -1.4662125723       -0.2592223625
 H         -4.1493944395       -0.2380341450        2.6092544865
 H         -6.1900488524       -2.1229827130       -0.6402143814
 C         -1.6062488485        1.7872640023        0.2194811534
 H         -0.8568223784        2.4645076181        0.5990929208
 C         -2.4287806345        1.1409278396        1.1053453035
 H         -2.3197645238        1.3127438474        2.1658198740
 C         -3.9364484940       -0.3636016805       -3.4835761380
 H         -4.0695647845       -0.5102178545       -4.5449571875
 C         -4.7535771338       -1.0095722419       -2.5883613962
 H         -5.5323975893       -1.6683849644       -2.9421240296
 C         -6.2084118626       -2.0253514995        2.0639718003
 C         -5.9148778128       -1.7160199751        3.5327684551
 H         -6.0569000157       -0.6600348504        3.7514471047
 H         -4.9043474444       -2.0121996455        3.8062453589
 H         -6.6025380324       -2.2761517928        4.1602917527
 C         -6.0329809010       -3.5353773732        1.8381168619
 H         -5.0018360166       -3.8313735685        2.0196976692
 H         -6.3031182905       -3.8302960987        0.8280220585
 H         -6.6713985655       -4.0809203385        2.5270261179
 C         -7.6574128599       -1.6167275376        1.7575483698
 H         -7.7855658162       -0.5436167333        1.8811870525
 H         -8.3290932563       -2.1225857801        2.4451868419
 H         -7.9511128731       -1.8839990472        0.7463496319
 H         -2.2157376253        1.0470189946       -5.0054980958
