77
       -105.32135594
 H          0.2941362720        4.0816761675        0.5738022599
 C          1.0252093697        3.2855753117        0.5791970626
 C          2.9993294974        1.3155071811        0.5672382418
 C          1.0305426760        2.3559251302       -0.4582028180
 C          1.9495642404        3.2453964528        1.6028074394
 C          2.9647211732        2.2703706047        1.6153135471
 C          2.0195832835        1.3315788092       -0.4623295073
 H          1.9176675672        3.9844113845        2.3890827236
 C          4.0429633942        0.3633152655        0.5392022537
 C          6.2009227529       -1.4993381113        0.4332256498
 C          4.1200506400       -0.5886292752       -0.5034334300
 C          5.0457343042        0.3621406249        1.5414387659
 C          6.1018482863       -0.5719349056        1.4650364326
 C          5.1967533065       -1.5003741632       -0.5322613761
 H          6.8488659898       -0.5415781787        2.2420323912
 H          5.2288613328       -2.2113427743       -1.3440392999
 C          3.9574574190        2.2370627834        2.6202841639
 H          3.9130396766        2.9636473375        3.4177401454
 C          4.9714811838        1.3116805789        2.5839380829
 H          5.7305987932        1.3081472997        3.3517209131
 C          2.1033277408        0.3449535558       -1.4724991898
 H          1.3542413480        0.3186794235       -2.2469674893
 C          3.1149155795       -0.5810526111       -1.4947088830
 H          3.1573490204       -1.3134682431       -2.2870982316
 C          7.3484907642       -2.4857873868        0.3222198632
 C          8.3542202941       -2.3471165051        1.4664163241
 H          7.8895944041       -2.5454686488        2.4297191400
 H          8.8088823276       -1.3590049881        1.4767806799
 H          9.1516665741       -3.0726909891        1.3313455021
 C          8.0813912493       -2.2311432059       -1.0042127386
 H          8.4628611741       -1.2130013703       -1.0400850204
 H          7.4334337633       -2.3862659043       -1.8626521053
 H          8.9219962902       -2.9135004550       -1.0913938815
 C          6.7823219895       -3.9138807283        0.3409894072
 H          6.1211071253       -4.1005717592       -0.5007075436
 H          6.2300836988       -4.0933489321        1.2609137047
 H          7.5991369412       -4.6279295587        0.2888862431
 C          0.0861743275        2.5570494440       -1.6137602931
 H          0.7008091987        2.7481566793       -2.4993174301
 H         -0.4913443615        3.4673877064       -1.4233270711
 H         -0.1145432844        1.2483485309       -3.9375929555
 C         -0.8829313687        0.9370408413       -3.2440941700
 C         -2.9483639180        0.1974166633       -1.5220545835
 C         -1.8388565250        0.0410977684       -3.6769185644
 C         -0.9014765046        1.4739729613       -1.9588650397
 C         -1.9381138957        1.0857079996       -1.0632332494
 C         -2.8997030359       -0.3397285600       -2.8337491922
 C         -4.0352972650       -0.1356815547       -0.6828693056
 C         -6.2762482044       -0.7355491206        0.9772138955
 C         -5.0669934469       -0.9918138597       -1.1440530055
 C         -4.1263784782        0.3998427163        0.6225606565
 C         -5.2443587030        0.0863958811        1.4246026095
 C         -6.1640568436       -1.2729004713       -0.3007471005
 H         -5.2859293831        0.5149321826        2.4146145556
 H         -6.9320395101       -1.9246696207       -0.6855627073
 C         -2.0385005814        1.5773848838        0.2592767716
 H         -1.2683399483        2.2285294866        0.6393874730
 C         -3.0923666320        1.2487164284        1.0733165494
 H         -3.1458783805        1.6511032215        2.0739842109
 C         -3.9230063923       -1.2125998381       -3.2668145734
 H         -3.8679372460       -1.6221584235       -4.2643415094
 C         -4.9788500311       -1.5281105140       -2.4473305236
 H         -5.7602616456       -2.1855233225       -2.7979962840
 C         -7.4660475849       -1.0035028518        1.8798760434
 C         -6.9701355821       -1.6608367163        3.1769348533
 H         -6.2932481190       -1.0138110932        3.7280174858
 H         -6.4555535391       -2.5942146993        2.9591061461
 H         -7.8184038046       -1.8809059848        3.8186259135
 C         -8.4983862877       -1.9273219845        1.2312659939
 H         -8.0734929874       -2.9037063608        1.0091925533
 H         -8.9049801888       -1.4905505563        0.3218118117
 H         -9.3253964030       -2.0784433448        1.9196273945
 C         -8.1450131890        0.3374681426        2.1996166603
 H         -7.4793767877        1.0137713533        2.7291164606
 H         -9.0144586270        0.1637322158        2.8270712688
 H         -8.4757056834        0.8253370772        1.2852604373
 H         -1.7953214860       -0.3524349425       -4.6812224742
