77
       -105.32123534
 H          0.8395711873        4.9860460951        0.1892673471
 C          1.3795236692        4.0515359795        0.2335317925
 C          2.8010333560        1.6522687065        0.3507204846
 C          1.0919064158        3.0552829151       -0.7026593870
 C          2.3371804026        3.8810067778        1.2073918919
 C          3.0681299456        2.6775977466        1.2943900898
 C          1.8194490609        1.8338849965       -0.6606666549
 H          2.5399070798        4.6729118402        1.9122835072
 C          3.5379193145        0.4486766822        0.4151659513
 C          5.0117530215       -1.9885507188        0.5496781625
 C          3.3125587266       -0.5859717204       -0.5229755198
 C          4.5240327528        0.2617783445        1.4155922319
 C          5.2368680879       -0.9531413592        1.4586094836
 C          4.0552067573       -1.7843917612       -0.4352122626
 H          5.9823367491       -1.0676827638        2.2309494936
 H          3.8556516570       -2.5486508756       -1.1690295589
 C          4.0596357858        2.4766139897        2.2789036640
 H          4.2571893389        3.2683799570        2.9858829867
 C          4.7679149831        1.3014603389        2.3409235152
 H          5.5242102442        1.1631268466        3.0989648247
 C          1.6297807078        0.7893941277       -1.5960133019
 H          0.9077995871        0.9166939897       -2.3879634386
 C          2.3463624084       -0.3772652798       -1.5307133901
 H          2.1807243788       -1.1532385941       -2.2631343741
 C          5.8080006875       -3.2736159986        0.6731177555
 C          5.4323956828       -4.3007033129       -0.3961356295
 H          5.6378022466       -3.9251038913       -1.3960229757
 H          4.3850206058       -4.5857111928       -0.3218600842
 H          6.0279193857       -5.1982742942       -0.2542974546
 C          5.5356181667       -3.8863090787        2.0560515957
 H          4.4747052923       -4.0940330732        2.1794321000
 H          5.8540821176       -3.2308221052        2.8617695565
 H          6.0801718348       -4.8212705864        2.1514049737
 C          7.3020992745       -2.9447351940        0.5329960381
 H          7.5014467061       -2.4776843548       -0.4289571651
 H          7.8815886379       -3.8614223116        0.5944114797
 H          7.6480063565       -2.2777552113        1.3176251570
 C          0.0974158638        3.3658074393       -1.7835765586
 H          0.6711316098        3.6182385989       -2.6833223301
 H         -0.4425137728        4.2773432786       -1.5007375006
 H         -0.6186394966        2.6769454586       -4.2494347158
 C         -1.2010082204        2.1407774232       -3.5144600370
 C         -2.7314533193        0.7628566636       -1.6303323532
 C         -2.1888138469        1.2835906103       -3.9434839659
 C         -0.9358555779        2.3429863463       -2.1578100153
 C         -1.7183412218        1.6562105850       -1.1888169541
 C         -2.9751368556        0.5700243289       -3.0147394750
 C         -3.5230486331        0.0679653114       -0.6888983545
 C         -5.1076512103       -1.3434623070        1.2156533108
 C         -4.5408082400       -0.8189028676       -1.1199859357
 C         -3.3214975173        0.2527545286        0.6991297431
 C         -4.1190318958       -0.4584051269        1.6230471682
 C         -5.3084131452       -1.5034736790       -0.1565713825
 H         -3.9359888687       -0.2897623560        2.6720736965
 H         -6.0771547864       -2.1719965577       -0.5135952071
 C         -1.5530814102        1.8349111355        0.2049422953
 H         -0.8070962444        2.5282507159        0.5619109740
 C         -2.3226289134        1.1589725247        1.1158430491
 H         -2.1741634699        1.3215838185        2.1729742479
 C         -3.9985150378       -0.3113547144       -3.4253663806
 H         -4.1774874699       -0.4426683932       -4.4819961501
 C         -4.7603053663       -0.9894692397       -2.5054037434
 H         -5.5404329526       -1.6591909200       -2.8349780302
 C         -5.9636595035       -2.1300690051        2.1898903610
 C         -7.4372974366       -1.7596467707        1.9633097426
 H         -7.7728848582       -2.0165179164        0.9625282161
 H         -7.5904293641       -0.6934514322        2.1149983988
 H         -8.0589257256       -2.2984806750        2.6726267613
 C         -5.6069281420       -1.8411964707        3.6488592669
 H         -5.7698123201       -0.7948232592        3.8970680822
 H         -4.5754953532       -2.1110023573        3.8658843129
 H         -6.2452150113       -2.4351178917        4.2971238000
 C         -5.7551878503       -3.6293234841        1.9237532132
 H         -6.0652258191       -3.9120839419        0.9216673883
 H         -6.3431213217       -4.2076469514        2.6306201905
 H         -4.7081771325       -3.8974778403        2.0493283807
 H         -2.3728013445        1.1542124045       -4.9991800952
