77
       -105.32640432
 H         -0.3130326143        1.8644877170       -0.8545944938
 C          0.6648986864        1.4798487012       -0.6069724992
 C          3.2115188698        0.5190081286        0.0245487265
 C          1.0689853325        0.2569030616       -1.1353679974
 C          1.4860406756        2.2194189044        0.2171553298
 C          2.7749757756        1.7604012109        0.5540515085
 C          2.3649777201       -0.2430427872       -0.8239026545
 H          1.1467134404        3.1666094191        0.6083653075
 C          4.5051988824        0.0502262145        0.3447687389
 C          7.1155980269       -0.9015278040        0.9877171666
 C          4.9744645208       -1.1798988884       -0.1730509470
 C          5.3570735166        0.8075384120        1.1862177254
 C          6.6427777140        0.3125337729        1.4869756377
 C          6.2712427289       -1.6306045708        0.1604148968
 H          7.2702766904        0.9112597465        2.1298436509
 H          6.5925650625       -2.5729991177       -0.2533516872
 C          3.6387803766        2.5017173628        1.3905179330
 H          3.2947685384        3.4459927814        1.7852295949
 C          4.8945210213        2.0400752905        1.6991657182
 H          5.5436454919        2.6191862803        2.3387343455
 C          2.8627237304       -1.4687729702       -1.3294825109
 H          2.2474811152       -2.0680106449       -1.9820342383
 C          4.1198386240       -1.9205773650       -1.0168107557
 H          4.4696500399       -2.8585826673       -1.4214455723
 C          8.5096338707       -1.3687797506        1.3605444157
 C          8.5925357450       -1.5010569731        2.8893111122
 H          8.4272278367       -0.5511003337        3.3899661732
 H          9.5793536324       -1.8585698406        3.1689438384
 H          7.8550562590       -2.2143741760        3.2510830454
 C          9.5254368843       -0.3248144863        0.8711482365
 H         10.5311286447       -0.6573442457        1.1116725006
 H          9.3719916821        0.6432194526        1.3400152142
 H          9.4549274085       -0.2002686666       -0.2072549108
 C          8.8615009617       -2.7201355229        0.7364490527
 H          8.1827709976       -3.5008065703        1.0730609435
 H          9.8650999333       -3.0042629984        1.0407042827
 H          8.8498083041       -2.6701426425       -0.3500956643
 C          0.1671992386       -0.5181089040       -2.0577104501
 H          0.0711081080       -1.5431831524       -1.6865780326
 H          0.6656051033       -0.5774979676       -3.0312572541
 H         -0.6851576151        0.8663706984       -4.1754998043
 C         -1.4755899583        0.7332225184       -3.4518253877
 C         -3.5357176834        0.3820433049       -1.5991324969
 C         -2.7325610148        1.2243547729       -3.7349746827
 C         -1.2015979484        0.0588648962       -2.2644804384
 C         -2.2357659925       -0.1058661346       -1.3019547792
 C         -3.7947916633        1.0486810853       -2.8245181959
 C         -4.5894437373        0.2009350971       -0.6760518864
 C         -6.7175384430       -0.1913300976        1.1801537452
 C         -5.8938271383        0.6674977051       -0.9729804033
 C         -4.3611937191       -0.4542211133        0.5568591396
 C         -5.4322534675       -0.6358747949        1.4601853515
 C         -6.9275683080        0.4582699848       -0.0371110248
 H         -5.2198616979       -1.1410004631        2.3887556351
 H         -7.9122280566        0.8204556994       -0.2913159410
 C         -2.0316938392       -0.7409959084       -0.0527607459
 H         -1.0475128340       -1.0980883244        0.2082202832
 C         -3.0557776654       -0.9079047955        0.8439537242
 H         -2.8704897933       -1.3991437243        1.7875795830
 C         -5.0998903004        1.5132808022       -3.0996089646
 H         -5.2843904994        2.0187031448       -4.0357214741
 C         -6.1227183183        1.3258780893       -2.2019176943
 H         -7.1162896492        1.6818358040       -2.4297729883
 C         -7.8827942637       -0.3845378988        2.1317568928
 C         -8.9620384863       -1.2167318557        1.4217778716
 H         -8.5628661276       -2.1835992153        1.1229276995
 H         -9.3471913203       -0.7155631600        0.5381624974
 H         -9.7939383170       -1.3850473491        2.0996402112
 C         -8.4495605564        0.9938277028        2.5059870969
 H         -9.2682460082        0.8699407110        3.2090170357
 H         -8.8315691325        1.5263736974        1.6395946828
 H         -7.6836383671        1.6061663470        2.9771706547
 C         -7.4761989934       -1.1085867128        3.4162170866
 H         -7.0958935041       -2.1057658743        3.2057620301
 H         -8.3476145240       -1.2180568029        4.0558350868
 H         -6.7301095294       -0.5435945672        3.9708388669
 H         -2.9166120193        1.7382425085       -4.6662124045
