77
       -105.32103140
 H          0.8718478793        5.0268301446        0.1741953324
 C          1.4002690608        4.0858162093        0.2193709333
 C          2.7894348224        1.6678605737        0.3409063840
 C          1.0967546547        3.0904365226       -0.7127487347
 C          2.3584587452        3.9057679119        1.1909590753
 C          3.0719564570        2.6921239271        1.2812596971
 C          1.8104442652        1.8607924047       -0.6708739279
 H          2.5737638334        4.6971818734        1.8926616876
 C          3.5075821494        0.4532406770        0.4097533494
 C          4.9377713511       -2.0090042228        0.5579417254
 C          3.2667637521       -0.5808530184       -0.5251259810
 C          4.4892932183        0.2539245039        1.4121203068
 C          5.1804363689       -0.9731990116        1.4619086312
 C          3.9879734208       -1.7917693683       -0.4306614900
 H          5.9228733864       -1.0971925984        2.2357053319
 H          3.7769656136       -2.5552867147       -1.1620399119
 C          4.0606859011        2.4795928433        2.2661168384
 H          4.2710544724        3.2710434048        2.9697434561
 C          4.7498874247        1.2933968335        2.3331312395
 H          5.5035577510        1.1459071425        3.0920604046
 C          1.6083619302        0.8180652965       -1.6055627026
 H          0.8917041337        0.9553417877       -2.4006860405
 C          2.3070201982       -0.3591601044       -1.5362484629
 H          2.1318122947       -1.1337710948       -2.2678838713
 C          5.7083518005       -3.3087101306        0.6906983347
 C          5.3154104738       -4.3342260460       -0.3738405926
 H          5.5314716392       -3.9687208886       -1.3752089856
 H          4.2622502704       -4.5975944117       -0.3013059257
 H          5.8922322520       -5.2427864281       -0.2248779414
 C          5.4195891832       -3.9079147351        2.0762376002
 H          4.3543986286       -4.0940350915        2.1973460902
 H          5.7483117990       -3.2541107979        2.8792021740
 H          5.9453433457       -4.8528212338        2.1787802273
 C          7.2090783304       -3.0105123914        0.5533288791
 H          7.4205204951       -2.5527470361       -0.4104919301
 H          7.7699143985       -3.9382676589        0.6213594557
 H          7.5659923820       -2.3464055125        1.3354465396
 C          0.0976637540        3.4087001464       -1.7869772480
 H          0.6670617272        3.6641921486       -2.6886779390
 H         -0.4382237197        4.3205532869       -1.4973129992
 H         -0.6494370979        2.7508033023       -4.2512689903
 C         -1.2204465769        2.2030005866       -3.5159886469
 C         -2.7191312396        0.7923271938       -1.6305213619
 C         -2.2085667337        1.3454616717       -3.9435093845
 C         -0.9398433549        2.3900190975       -2.1602478599
 C         -1.7087138025        1.6892922541       -1.1902225865
 C         -2.9777421676        0.6140895049       -3.0141934519
 C         -3.4924223452        0.0781692664       -0.6883009944
 C         -5.0345357438       -1.3779002419        1.2174326081
 C         -4.5056860070       -0.8144863377       -1.1180532628
 C         -3.2759828337        0.2481371665        0.6993612068
 C         -4.0526870752       -0.4849208520        1.6238817511
 C         -5.2521188650       -1.5212940014       -0.1540748788
 H         -3.8586878099       -0.3271858215        2.6726339966
 H         -6.0176668120       -2.1940416734       -0.5100179119
 C         -1.5314279471        1.8560129612        0.2035259101
 H         -0.7906940338        2.5551727944        0.5601064404
 C         -2.2835299737        1.1617736880        1.1152036598
 H         -2.1258508273        1.3151089529        2.1723866267
 C         -3.9981946687       -0.2713609897       -3.4232821268
 H         -4.1895639419       -0.3905358567       -4.4791773342
 C         -4.7413051550       -0.9691192260       -2.5026994466
 H         -5.5187089132       -1.6425575718       -2.8311349805
 C         -5.8654957483       -2.1905674823        2.1919735983
 C         -7.3475412455       -1.8397132876        1.9909049043
 H         -7.6933000943       -2.0882386240        0.9914933503
 H         -7.5146188866       -0.7781386757        2.1592869917
 H         -7.9509057800       -2.3974903280        2.7013490735
 C         -5.4928925302       -1.9168319781        3.6499060803
 H         -5.6680609584       -0.8766761898        3.9152443708
 H         -4.4545802479       -2.1738808425        3.8489231826
 H         -6.1130687865       -2.5295112853        4.2982890996
 C         -5.6379113130       -3.6825534192        1.9016011945
 H         -5.9568562814       -3.9557063420        0.8996396540
 H         -6.2076073306       -4.2798194183        2.6076471324
 H         -4.5853772563       -3.9364058005        2.0096281243
 H         -2.4047762994        1.2280201635       -4.9983971923
