77
       -105.32080329
 H          0.8451321834        5.0429941706        0.0088653955
 C          1.3780669549        4.1073096240        0.0940276196
 C          2.7810540325        1.7051413249        0.3232575720
 C          1.0919292767        3.0779861409       -0.8027738018
 C          2.3267974415        3.9689915624        1.0842227348
 C          3.0452817880        2.7653532555        1.2281503650
 C          1.8138416610        1.8537038483       -0.7070462130
 H          2.5281780165        4.7877100740        1.7582519593
 C          3.5060526121        0.4986641304        0.4461771094
 C          4.9528156259       -1.9447493040        0.7092661334
 C          3.2825103607       -0.5692601414       -0.4531515660
 C          4.4768393243        0.3413290402        1.4673099643
 C          5.1772527831       -0.8795097870        1.5755859947
 C          4.0117627644       -1.7674982411       -0.3017501780
 H          5.9072197874       -0.9653608500        2.3645231736
 H          3.8192056384       -2.5627646367       -1.0059202296
 C          4.0233811667        2.5943538193        2.2324280881
 H          4.2207060496        3.4123468879        2.9090054627
 C          4.7185890629        1.4154999498        2.3515500516
 H          5.4635359887        1.3010360079        3.1246659810
 C          1.6295660615        0.7775071858       -1.6055764111
 H          0.9220138738        0.8808591519       -2.4138196597
 C          2.3347585242       -0.3919459932       -1.4846770162
 H          2.1737044691       -1.1938889804       -2.1896466773
 C          5.6846168526       -3.2688234211        0.8275446143
 C          4.6477598823       -4.3809187493        1.0508784090
 H          3.9569421393       -4.4656379527        0.2163011226
 H          4.0746437685       -4.1922145711        1.9562697236
 H          5.1565756260       -5.3340223759        1.1621389264
 C          6.6751869345       -3.2890351510        1.9930171883
 H          6.1712540578       -3.1365378602        2.9449490323
 H          7.4517161366       -2.5382179968        1.8664476413
 H          7.1617227314       -4.2597847215        2.0314620371
 C          6.4567944358       -3.5267998457       -0.4748561111
 H          5.7940253004       -3.6035186002       -1.3324571414
 H          7.0060436290       -4.4602204159       -0.3921242319
 H          7.1698634924       -2.7267598995       -0.6605956581
 C          0.1043508858        3.3482084240       -1.9006708165
 H          0.6832855850        3.5718264152       -2.8047503879
 H         -0.4396830852        4.2676298971       -1.6531268281
 H         -0.6141504025        2.5997318199       -4.3463888266
 C         -1.1893126167        2.0743147297       -3.5981202438
 C         -2.6985517264        0.7207794222       -1.6796491257
 C         -2.1680085698        1.1963508161       -4.0053097581
 C         -0.9235828639        2.3104345207       -2.2470107293
 C         -1.6980696756        1.6390059396       -1.2608648792
 C         -2.9421724338        0.4928988328       -3.0587433529
 C         -3.4768694606        0.0346428359       -0.7208676643
 C         -5.0288443812       -1.3648347256        1.2190488476
 C         -4.4802426919       -0.8789437539       -1.1292978847
 C         -3.2755029434        0.2539861618        0.6621421281
 C         -4.0567794305       -0.4518091286        1.6038816738
 C         -5.2318224714       -1.5569526043       -0.1487335389
 H         -3.8742556902       -0.2566162295        2.6483812640
 H         -5.9894832119       -2.2467109311       -0.4886366666
 C         -1.5361421581        1.8552192126        0.1279679317
 H         -0.8035899184        2.5712732659        0.4673397765
 C         -2.2932044448        1.1881823949        1.0557301008
 H         -2.1473272809        1.3793426787        2.1084338859
 C         -3.9530807690       -0.4126946500       -3.4468701111
 H         -4.1331115421       -0.5695906569       -4.4998252297
 C         -4.7011472264       -1.0828984879       -2.5099623482
 H         -5.4711839036       -1.7722099742       -2.8224306833
 C         -5.8642265555       -2.1489862779        2.2129668325
 C         -5.6240816136       -3.6485136336        1.9765810870
 H         -4.5710538050       -3.8913152245        2.1035508757
 H         -5.9312676068       -3.9582755536        0.9816172683
 H         -6.1968998509       -4.2249119092        2.6972916002
 C         -7.3464265678       -1.8153720091        1.9854269651
 H         -7.6805811211       -2.1005913991        0.9918828342
 H         -7.5220505922       -0.7497840616        2.1153662241
 H         -7.9532244204       -2.3524024311        2.7088133720
 C         -5.5079496201       -1.8225227229        3.6641029055
 H         -4.4700493325       -2.0655389041        3.8820080317
 H         -6.1306232385       -2.4166002370        4.3272334564
 H         -5.6924138955       -0.7750243229        3.8915527048
 H         -2.3528596841        1.0411248005       -5.0573631902
