77
       -105.32072282
 H          0.8444036414        4.9966949887       -0.3264734509
 C          1.3830027700        4.0603835792       -0.3196894120
 C          2.8029124442        1.6573962536       -0.3098759580
 C          1.0598126330        3.0972081891        0.6360669811
 C          2.3759973134        3.8567219274       -1.2536338584
 C          3.1050591306        2.6511132036       -1.2762474882
 C          1.7877131771        1.8730245186        0.6607607714
 H          2.6050880474        4.6257074079       -1.9756841237
 C          3.5382592730        0.4508975966       -0.3104852316
 C          5.0102945399       -1.9916776865       -0.3236027567
 C          3.2771712877       -0.5507143606        0.6527614452
 C          4.5575870027        0.2278661145       -1.2702496095
 C          5.2694624343       -0.9910777670       -1.2548350042
 C          4.0198511739       -1.7499918751        0.6249748277
 H          6.0367274909       -1.1278960386       -1.9999731126
 H          3.7977609835       -2.4935026107        1.3754755903
 C          4.1298508335        2.4150845535       -2.2189269261
 H          4.3548058654        3.1830393538       -2.9438074447
 C          4.8356234175        1.2365073582       -2.2186461108
 H          5.6169554466        1.0721517558       -2.9454616915
 C          1.5639454391        0.8621190999        1.6238631842
 H          0.8167171687        1.0171861296        2.3867696371
 C          2.2793242624       -0.3074426333        1.6216530585
 H          2.0874878755       -1.0580463024        2.3738659961
 C          5.7563355600       -3.3129733336       -0.3075225279
 C          6.8015637392       -3.4095590389       -1.4202436777
 H          7.5657366211       -2.6430558983       -1.3140653718
 H          6.3425457307       -3.3340836907       -2.4035953394
 H          7.2963943307       -4.3751553250       -1.3626584773
 C          4.7397944553       -4.4501572115       -0.4947899398
 H          4.2085640148       -4.3359143717       -1.4374082966
 H          4.0110727058       -4.4803292843        0.3107845430
 H          5.2606649316       -5.4031138968       -0.5105420103
 C          6.4674069751       -3.4638443217        1.0455385585
 H          7.0263674374       -4.3950557514        1.0597717352
 H          5.7650361764       -3.4824869258        1.8743779588
 H          7.1652943561       -2.6446360742        1.2033395201
 C          0.0260249048        3.4426171285        1.6685840718
 H         -0.5050145858        4.3415968220        1.3334951713
 H          0.5661041777        3.7298194057        2.5786819691
 H         -0.7856333465        2.8499098514        4.1292367007
 C         -1.3355213670        2.2817253999        3.3932992623
 C         -2.7844576803        0.8180117281        1.5095028694
 C         -2.3367322418        1.4349503687        3.8179396915
 C         -1.0181565342        2.4309558328        2.0432498955
 C         -1.7606645333        1.7007213196        1.0713881515
 C         -3.0805727192        0.6792326404        2.8899719265
 C         -3.5343769653        0.0789956419        0.5672422275
 C         -5.0359678551       -1.4267107839       -1.3331141195
 C         -4.5624096690       -0.7996138865        0.9928210511
 C         -3.2793421766        0.2108231403       -0.8172482377
 C         -4.0365785467       -0.5450520191       -1.7369516765
 C         -5.2889446831       -1.5340186245        0.0307232135
 H         -3.8186261164       -0.4198458048       -2.7868106434
 H         -6.0625846874       -2.1938671911        0.3895092337
 C         -1.5431538934        1.8272223695       -0.3201053698
 H         -0.7893875358        2.5127518592       -0.6754963928
 C         -2.2725756353        1.1094968905       -1.2324944497
 H         -2.0851073551        1.2321946705       -2.2888240291
 C         -4.1141094454       -0.1939645257        3.2947950053
 H         -4.3342739998       -0.2840902722        4.3479881845
 C         -4.8341806353       -0.9152677131        2.3737188912
 H         -5.6220650956       -1.5776708240        2.6996231114
 C         -5.7976907780       -2.2238092195       -2.3757359242
 C         -4.7961238527       -3.0895615369       -3.1561081206
 H         -4.0616054817       -2.4861326694       -3.6826650437
 H         -5.3283145764       -3.6859501982       -3.8914795366
 H         -4.2708689678       -3.7651488369       -2.4841893140
 C         -6.5004627369       -1.2470160599       -3.3302625213
 H         -5.7922668675       -0.6181888062       -3.8628744278
 H         -7.1870683358       -0.6055466657       -2.7824124987
 H         -7.0706793166       -1.8062201631       -4.0664257955
 C         -6.8522355056       -3.1424810472       -1.7560992051
 H         -6.3996514962       -3.8732252555       -1.0893535418
 H         -7.3584766641       -3.6894139600       -2.5467526076
 H         -7.6060879424       -2.5735860850       -1.2168104526
 H         -2.5609480947        1.3476796876        4.8702178408
