77
       -105.32062472
 H          0.8952551128        5.0499137670        0.2839993406
 C          1.4125350452        4.1021013946        0.3127369541
 C          2.7707641637        1.6650735917        0.3940208315
 C          1.1039364660        3.1302870515       -0.6423712214
 C          2.3613720593        3.8902575632        1.2870370867
 C          3.0580218424        2.6655668783        1.3582364482
 C          1.8042947528        1.8923793041       -0.6226907633
 H          2.5811131111        4.6642336984        2.0065872778
 C          3.4710247483        0.4391629890        0.4448954489
 C          4.8599618631       -2.0483451893        0.5602617974
 C          3.2254746405       -0.5718812649       -0.5136608120
 C          4.4386898151        0.2048098562        1.4533242477
 C          5.1095310698       -1.0341110768        1.4865486201
 C          3.9261578615       -1.7959118781       -0.4351732268
 H          5.8413480711       -1.1850647189        2.2656535080
 H          3.7119506291       -2.5411174879       -1.1842888953
 C          4.0343113477        2.4191636948        2.3475731451
 H          4.2493198518        3.1932880745        3.0688523355
 C          4.7054331682        1.2217765731        2.3973974600
 H          5.4491973665        1.0479974972        3.1605223795
 C          1.6002680034        0.8736511241       -1.5830868858
 H          0.8965236451        1.0387657167       -2.3843532169
 C          2.2818875848       -0.3144175436       -1.5314519496
 H          2.1053189937       -1.0701196989       -2.2822813801
 C          5.6058557904       -3.3638335177        0.6776279388
 C          7.1132456731       -3.0903936506        0.5642349349
 H          7.4722234379       -2.4477834158        1.3631736181
 H          7.3449087299       -2.6184776615       -0.3880331156
 H          7.6564317405       -4.0293174896        0.6213689490
 C          5.2079274078       -4.3620867603       -0.4107105580
 H          5.4431495652       -3.9821294588       -1.4023243778
 H          4.1493432946       -4.6074598780       -0.3560415983
 H          5.7663306378       -5.2836390496       -0.2717289838
 C          5.2889312688       -3.9832929049        2.0480367489
 H          5.6189162516       -3.3504277395        2.8671034162
 H          5.7965576903       -4.9391932394        2.1393949587
 H          4.2191538268       -4.1525208069        2.1524671988
 C          0.1116638628        3.4826501704       -1.7121963732
 H          0.6866061830        3.7654315916       -2.6022314277
 H         -0.4245601240        4.3861456436       -1.3978853775
 H         -0.6326124469        2.9106654232       -4.1988578482
 C         -1.2020732546        2.3361799113       -3.4830149943
 C         -2.6969578996        0.8520136037       -1.6516163788
 C         -2.1866306926        1.4878749109       -3.9420066448
 C         -0.9245085377        2.4772972236       -2.1233354999
 C         -1.6946842623        1.7408763227       -1.1778911314
 C         -2.9510300842        0.7198335857       -3.0411153593
 C         -3.4664456181        0.0990353882       -0.7366204531
 C         -4.9994039723       -1.4430630383        1.1084490931
 C         -4.4709528528       -0.7886369127       -1.1980197994
 C         -3.2536244780        0.2242966388        0.6555804919
 C         -4.0258866909       -0.5493921638        1.5474674288
 C         -5.2137503205       -1.5411046418       -0.2627164420
 H         -3.8404053556       -0.4288446698        2.6040867871
 H         -5.9684024812       -2.2077786806       -0.6483198438
 C         -1.5238556365        1.8651410614        0.2202778843
 H         -0.7919243174        2.5600542996        0.6023049975
 C         -2.2724469332        1.1342189609        1.1061915536
 H         -2.1201201246        1.2546047736        2.1684235331
 C         -3.9642178898       -0.1598217516       -3.4816790016
 H         -4.1537738232       -0.2436004382       -4.5413277153
 C         -4.7022166365       -0.8960922242       -2.5869573677
 H         -5.4730182552       -1.5645359668       -2.9402346290
 C         -5.7754510120       -2.2628130312        2.1225868564
 C         -6.5199994364       -1.3078507820        3.0673942442
 H         -7.2023964271       -0.6722775195        2.5075836954
 H         -5.8371320056       -0.6728984876        3.6252041637
 H         -7.1002536107       -1.8841031599        3.7822578552
 C         -4.7802038378       -3.1193825073        2.9210427130
 H         -4.0701170345       -2.5089347768        3.4724721316
 H         -4.2260976917       -3.7794715658        2.2569079317
 H         -5.3213316254       -3.7317989844        3.6364473348
 C         -6.7970280019       -3.1930011504        1.4660188753
 H         -7.5463339071       -2.6316335373        0.9127368497
 H         -7.3141591884       -3.7569338399        2.2374475215
 H         -6.3142695158       -3.9087071247        0.8041258843
 H         -2.3799714486        1.4066746881       -5.0008701412
