77
       -105.32056476
 H          0.8572900778        5.0332645459        0.2508891719
 C          1.3861243390        4.0921837725        0.2894263809
 C          2.7784432783        1.6755594349        0.3991945720
 C          1.0949299512        3.1096570170       -0.6569010890
 C          2.3348899725        3.9012569445        1.2707975060
 C          3.0479656923        2.6887841500        1.3549181579
 C          1.8115597545        1.8790227699       -0.6220661391
 H          2.5403384636        4.6850024214        1.9840352538
 C          3.4977460560        0.4610786044        0.4625189906
 C          4.9324415367       -1.9994686287        0.6052904499
 C          3.2689672965       -0.5604237182       -0.4879602595
 C          4.4680093218        0.2492336456        1.4742651431
 C          5.1623631762       -0.9789263129        1.5224749911
 C          3.9922389042       -1.7682709768       -0.3955684628
 H          5.8919839775       -1.1068621861        2.3060130387
 H          3.7956266119       -2.5271798177       -1.1377145906
 C          4.0256678055        2.4642246377        2.3489857756
 H          4.2271320249        3.2471765601        3.0646731592
 C          4.7153195350        1.2776758446        2.4098234271
 H          5.4600660458        1.1219967895        3.1758983623
 C          1.6224858295        0.8492023495       -1.5724722478
 H          0.9156872501        0.9955426577       -2.3746282514
 C          2.3222717170       -0.3280431730       -1.5094265034
 H          2.1575966776       -1.0934701027       -2.2530892262
 C          5.6572969241       -3.3315383792        0.6586660240
 C          4.6145655284       -4.4476104857        0.8284105901
 H          3.9229600904       -4.4879805131       -0.0088365095
 H          4.0428245303       -4.3000790999        1.7422772148
 H          5.1183080548       -5.4076949206        0.8928857268
 C          6.6481385892       -3.4135056657        1.8211961057
 H          6.1453211776       -3.3048901933        2.7797131524
 H          7.4285002095       -2.6614338893        1.7308199930
 H          7.1296457576       -4.3874737787        1.8121081817
 C          6.4276317317       -3.5301042559       -0.6551765915
 H          5.7641728616       -3.5617577055       -1.5150887958
 H          6.9720190075       -4.4692851811       -0.6181055320
 H          7.1448123021       -2.7257358925       -0.8023867423
 C          0.1072914926        3.4390802017       -1.7385267727
 H          0.6863832162        3.7098576564       -2.6295318467
 H         -0.4352133417        4.3448406694       -1.4421511748
 H         -0.6114281396        2.8179350753       -4.2204081387
 C         -1.1872760049        2.2565026146       -3.4993145265
 C         -2.7005432068        0.8078139678       -1.6548507673
 C         -2.1682336682        1.4004901603       -3.9517118939
 C         -0.9221121758        2.4227324505       -2.1399954202
 C         -1.6998979479        1.7024508848       -1.1884291874
 C         -2.9426085757        0.6509092115       -3.0439019845
 C         -3.4808505557        0.0742412244       -0.7332474170
 C         -5.0395540301       -1.4247336673        1.1259138742
 C         -4.4849011010       -0.8177021282       -1.1873786285
 C         -3.2801541081        0.2242309196        0.6583148436
 C         -4.0649637194       -0.5284704440        1.5572446790
 C         -5.2405445883       -1.5485038356       -0.2451723104
 H         -3.8886006178       -0.3891497058        2.6131170943
 H         -5.9944699929       -2.2190824319       -0.6253908613
 C         -1.5391057911        1.8492888030        0.2087583448
 H         -0.8062986859        2.5465614512        0.5845862430
 C         -2.2982217230        1.1371514205        1.1010579175
 H         -2.1537652597        1.2751373138        2.1622473046
 C         -3.9543060946       -0.2339377339       -3.4775050509
 H         -4.1339890457       -0.3371651415       -4.5371597058
 C         -4.7034410384       -0.9505867464       -2.5761577761
 H         -5.4734920951       -1.6226941606       -2.9240759321
 C         -5.8312962748       -2.2192878880        2.1479197360
 C         -6.5806036326       -1.2406048502        3.0643155601
 H         -7.2533616471       -0.6132843221        2.4838896787
 H         -5.9001588520       -0.5977094234        3.6159692031
 H         -7.1717194674       -1.7985105377        3.7848123457
 C         -4.8502472439       -3.0648739213        2.9750830899
 H         -4.1431578183       -2.4473159052        3.5224056163
 H         -4.2922246722       -3.7412953948        2.3309781216
 H         -5.4031153389       -3.6597034498        3.6963265089
 C         -6.8511069324       -3.1569181744        1.4992266925
 H         -7.5909677327       -2.6027681857        0.9262873907
 H         -7.3800248763       -3.7019367085        2.2762384872
 H         -6.3653360922       -3.8887939832        0.8575314072
 H         -2.3518915531        1.3000049666       -5.0106481126
