77
       -105.32039955
 H          0.9010890031        5.0501224346       -0.3834624110
 C          1.4208070483        4.1033690192       -0.3659005586
 C          2.7881275935        1.6702681050       -0.3316320081
 C          1.0750864665        3.1560714685        0.5978640212
 C          2.4115121475        3.8702285952       -1.2953021836
 C          3.1124798255        2.6478334551       -1.3072680459
 C          1.7798655790        1.9187260967        0.6383590535
 H          2.6586353408        4.6275426627       -2.0237087479
 C          3.4933801476        0.4459671555       -0.3233530401
 C          4.8961097180       -2.0370043132       -0.3255731590
 C          3.2098341848       -0.5405089852        0.6490993930
 C          4.5033780056        0.1887243463       -1.2844182466
 C          5.1808578346       -1.0495848084       -1.2634183139
 C          3.9183096687       -1.7603647714        0.6265257126
 H          5.9417133854       -1.2125142524       -2.0098757812
 H          3.6792981269       -2.4918391432        1.3836225992
 C          4.1302661365        2.3791517931       -2.2487401505
 H          4.3737763321        3.1357474628       -2.9795445634
 C          4.8056710087        1.1828902687       -2.2406531166
 H          5.5810548101        0.9930291760       -2.9676246856
 C          1.5383432874        0.9248979549        1.6148388695
 H          0.8014249894        1.1074163912        2.3817010941
 C          2.2246158393       -0.2619080082        1.6213889913
 H          2.0190200461       -0.9992425547        2.3830307658
 C          5.6006492345       -3.3808667420       -0.3068342582
 C          6.6396423769       -3.5135498254       -1.4216570781
 H          6.1808819265       -3.4269433936       -2.4042147755
 H          7.1042255382       -4.4939354571       -1.3620758990
 H          7.4275503331       -2.7708964913       -1.3197108547
 C          4.5475522460       -4.4852082682       -0.4891326223
 H          4.0193270781       -4.3571294416       -1.4316819272
 H          3.8190440597       -4.4886226990        0.3172352127
 H          5.0371963653       -5.4546198063       -0.5019290314
 C          6.3095235179       -3.5513736399        1.0449498391
 H          7.0324729068       -2.7536965093        1.2000610553
 H          6.8398099240       -4.4992029770        1.0594253759
 H          5.6087811002       -3.5475248056        1.8753451549
 C          0.0386556073        3.5299590200        1.6175004961
 H         -0.4855512792        4.4245817501        1.2604278250
 H          0.5756693393        3.8347949546        2.5237837213
 H         -0.8102700735        3.0200749283        4.0830674799
 C         -1.3472357241        2.4251502941        3.3588518343
 C         -2.7589646593        0.8886186516        1.5049494753
 C         -2.3484486109        1.5856554736        3.7975522335
 C         -1.0121990769        2.5319985942        2.0090069031
 C         -1.7396456422        1.7685473449        1.0512227140
 C         -3.0717277495        0.7916148807        2.8853424334
 C         -3.4867687462        0.1091594688        0.5780805929
 C         -4.9354613760       -1.4864392040       -1.2895326320
 C         -4.5075197199       -0.7701588540        1.0194122970
 C         -3.2153864126        0.1991579535       -0.8066435609
 C         -3.9469784935       -0.6003165241       -1.7100402452
 C         -5.2075732265       -1.5497635677        0.0733941531
 H         -3.7173660601       -0.5061764185       -2.7606560326
 H         -5.9758466857       -2.2093883796        0.4439286304
 C         -1.5099492891        1.8571580897       -0.3412289912
 H         -0.7643030698        2.5446217079       -0.7098273786
 C         -2.2185194887        1.1009185278       -1.2387726049
 H         -2.0216583077        1.1945128267       -2.2963716910
 C         -4.1003896157       -0.0801333448        3.3052884800
 H         -4.3347286687       -0.1369844624        4.3577433194
 C         -4.7975294997       -0.8423226913        2.3995661505
 H         -5.5808831953       -1.5042802033        2.7370920589
 C         -5.6654688807       -2.3351555260       -2.3139625981
 C         -6.7085059660       -3.2549807808       -1.6768125801
 H         -6.2497612077       -3.9508404140       -0.9777129436
 H         -7.1903099452       -3.8412549260       -2.4544309352
 H         -7.4830358691       -2.6847161205       -1.1692653750
 C         -4.6346795886       -3.2051949989       -3.0503050980
 H         -5.1436061628       -3.8384623393       -3.7711663881
 H         -4.1042726716       -3.8452330754       -2.3482757721
 H         -3.9061936822       -2.6044341671       -3.5881859824
 C         -6.3753835544       -1.4074216662       -3.3111244266
 H         -7.0836232614       -0.7630455228       -2.7951956497
 H         -6.9225856841       -2.0039907811       -4.0353238455
 H         -5.6733185967       -0.7815650252       -3.8552303253
 H         -2.5866212551        1.5314238109        4.8489806402
