77
       -105.32028895
 H          0.9096269557        5.0651611066       -0.4164763952
 C          1.4254728313        4.1165758449       -0.3876914799
 C          2.7816348046        1.6777637598       -0.3252757953
 C          1.0688580215        3.1781828315        0.5808229689
 C          2.4215419699        3.8719433249       -1.3083440329
 C          3.1163487515        2.6459470521       -1.3067657116
 C          1.7692208515        1.9389016430        0.6369919750
 H          2.6770052157        4.6224791926       -2.0408746889
 C          3.4803102077        0.4498713769       -0.3036344473
 C          4.8672947306       -2.0417608640       -0.2810632804
 C          3.1867437117       -0.5271682824        0.6753492248
 C          4.4932682644        0.1793431804       -1.2579064953
 C          5.1626191416       -1.0631069828       -1.2248143566
 C          3.8879464046       -1.7513784900        0.6653365218
 H          5.9256975120       -1.2364325702       -1.9666461684
 H          3.6418181751       -2.4751868872        1.4275034574
 C          4.1377890836        2.3645862374       -2.2405261429
 H          4.3895725645        3.1143345506       -2.9755703891
 C          4.8061654851        1.1645196795       -2.2200219841
 H          5.5840547792        0.9646875256       -2.9416246661
 C          1.5187405776        0.9550521360        1.6212827958
 H          0.7798842505        1.1481577089        2.3836902769
 C          2.1990842262       -0.2350128321        1.6411782350
 H          1.9866410949       -0.9645849893        2.4083954637
 C          5.5626627282       -3.3901598170       -0.2496601738
 C          6.6008456372       -3.5402669309       -1.3630330178
 H          7.3947909424       -2.8033063239       -1.2669493105
 H          6.1429401276       -3.4578610728       -2.3463647048
 H          7.0574410606       -4.5238739469       -1.2953656244
 C          4.5024756601       -4.4893168529       -0.4217603652
 H          3.9744660629       -4.3660738436       -1.3650818832
 H          3.7745014339       -4.4813703370        0.3850447880
 H          4.9859818271       -5.4618766716       -0.4264898361
 C          6.2700942210       -3.5523522463        1.1039098826
 H          6.7930723498       -4.5040334122        1.1281323244
 H          5.5692068751       -3.5345090160        1.9340121863
 H          6.9991160252       -2.7587028861        1.2510165334
 C          0.0239150668        3.5628135251        1.5875541993
 H         -0.4967247789        4.4540628575        1.2169795030
 H          0.5529049803        3.8767813698        2.4954647902
 H         -0.8565194967        3.0887955203        4.0486641002
 C         -1.3825925330        2.4815047315        3.3267323016
 C         -2.7650808483        0.9118260633        1.4785943023
 C         -2.3867472771        1.6454874236        3.7653084695
 C         -1.0307213640        2.5691608055        1.9797827073
 C         -1.7441721901        1.7896560078        1.0243604652
 C         -3.0950866144        0.8345427183        2.8562192359
 C         -3.4769448952        0.1142850686        0.5547296141
 C         -4.8906605888       -1.5204625063       -1.3058032477
 C         -4.4986979220       -0.7636059677        0.9965870679
 C         -3.1879353720        0.1839317817       -0.8275914841
 C         -3.9021436926       -0.6349537286       -1.7274787318
 C         -5.1813840216       -1.5626613025        0.0541049869
 H         -3.6587696708       -0.5566466422       -2.7762935937
 H         -5.9510623323       -2.2204743078        0.4249458710
 C         -1.4986071498        1.8594693926       -0.3664511367
 H         -0.7533473435        2.5466264181       -0.7363876827
 C         -2.1914656020        1.0854670729       -1.2610812582
 H         -1.9823080823        1.1645679329       -2.3175025671
 C         -4.1253135831       -0.0352541075        3.2763394480
 H         -4.3733406412       -0.0765510359        4.3263801744
 C         -4.8067749702       -0.8151590479        2.3737473174
 H         -5.5913219377       -1.4756198230        2.7114350649
 C         -5.5998498924       -2.3920472648       -2.3256542214
 C         -4.5524376712       -3.2718313996       -3.0261895503
 H         -3.8161948860       -2.6782717960       -3.5615464106
 H         -5.0455779195       -3.9205584113       -3.7442694296
 H         -4.0328931484       -3.8964147337       -2.3024437484
 C         -6.2961758484       -1.4879589814       -3.3535650291
 H         -6.8295666360       -2.1015403001       -4.0738463246
 H         -5.5874074639       -0.8712919648       -3.8994399674
 H         -7.0148304731       -0.8353800485       -2.8629871098
 C         -6.6499817401       -3.3036742774       -1.6883965230
 H         -6.2004348746       -3.9847386280       -0.9690554317
 H         -7.1170751659       -3.9061268753       -2.4626163251
 H         -7.4345130114       -2.7267832117       -1.2042328304
 H         -2.6382532098        1.6064408565        4.8143022317
