77
       -105.32013347
 H          0.9168035127        5.0947805496       -0.3736199584
 C          1.4280732907        4.1435756399       -0.3505520790
 C          2.7707493549        1.6969660046       -0.3041618346
 C          1.0619973118        3.1983914318        0.6077907524
 C          2.4273837481        3.9021322765       -1.2685053439
 C          3.1148499644        2.6719893755       -1.2755938318
 C          1.7569255228        1.9557229715        0.6572576074
 H          2.6903149981        4.6579201803       -1.9929471249
 C          3.4610189496        0.4641995336       -0.2920597966
 C          4.8273598177       -2.0388791530       -0.2920655476
 C          3.1578664300       -0.5200088725        0.6767591081
 C          4.4744651005        0.1954695099       -1.2463206257
 C          5.1335823788       -1.0526893714       -1.2244463911
 C          3.8488123018       -1.7498746065        0.6555659605
 H          5.8973197108       -1.2244796115       -1.9659576202
 H          3.5951401845       -2.4793326625        1.4098312985
 C          4.1377696888        2.3928276530       -2.2083723762
 H          4.3973549789        3.1480098754       -2.9350926954
 C          4.7976060005        1.1878957711       -2.1975406928
 H          5.5763610575        0.9896274192       -2.9186412501
 C          1.4990924571        0.9656538520        1.6333790785
 H          0.7613885734        1.1577116488        2.3971631341
 C          2.1711837379       -0.2291855616        1.6439839097
 H          1.9528274531       -0.9637178463        2.4047812905
 C          5.5094860032       -3.3942853140       -0.2747179827
 C          4.4387937991       -4.4800089051       -0.4663087132
 H          3.9174748024       -4.3395629885       -1.4109559228
 H          3.7063541362       -4.4740837645        0.3364903023
 H          4.9120461500       -5.4575090684       -0.4803654981
 C          6.2087708277       -3.5817730665        1.0797607284
 H          6.7229797329       -4.5384366495        1.0931102105
 H          5.5041543823       -3.5692591393        1.9067860512
 H          6.9442659480       -2.7969829980        1.2413928129
 C          6.5513582964       -3.5403131528       -1.3851752319
 H          6.0988632760       -3.4415400017       -2.3695003116
 H          6.9984936953       -4.5288972415       -1.3276360510
 H          7.3515906777       -2.8119822656       -1.2763329377
 C          0.0109931672        3.5782777932        1.6099345398
 H         -0.5087782918        4.4701241746        1.2394804537
 H          0.5343219646        3.8902922985        2.5218381180
 H         -0.8905775474        3.1034006947        4.0628767294
 C         -1.4068059252        2.4925149000        3.3368974418
 C         -2.7622629217        0.9117182435        1.4782120264
 C         -2.4089281169        1.6499626690        3.7674921538
 C         -1.0439867511        2.5815406873        1.9929313476
 C         -1.7454616445        1.7982061524        1.0317226598
 C         -3.1027896941        0.8323542731        2.8531678247
 C         -3.4590519256        0.1069151695        0.5491808693
 C         -4.8386890591       -1.5457504805       -1.3209804234
 C         -4.4753437522       -0.7810183290        0.9834892261
 C         -3.1596811704        0.1786337973       -0.8308245822
 C         -3.8573618636       -0.6490052904       -1.7356354218
 C         -5.1409691976       -1.5889412959        0.0363830650
 H         -3.6066900799       -0.5686387142       -2.7825732575
 H         -5.9066380437       -2.2545728140        0.4015280879
 C         -1.4912413131        1.8715672738       -0.3573468719
 H         -0.7511349241        2.5671149515       -0.7219334063
 C         -2.1698331780        1.0908695809       -1.2570674875
 H         -1.9541861004        1.1726254814       -2.3119807157
 C         -4.1285892613       -0.0463553925        3.2654478277
 H         -4.3853429868       -0.0886667016        4.3133475064
 C         -4.7946770398       -0.8339394018        2.3580355747
 H         -5.5755246038       -1.5017141552        2.6898634362
 C         -5.5282999894       -2.4276355411       -2.3454003846
 C         -4.4638183363       -3.2933221971       -3.0377158104
 H         -4.9428351697       -3.9496339973       -3.7584574954
 H         -3.9405902525       -3.9098504994       -2.3097174345
 H         -3.7322966597       -2.6901027443       -3.5687265697
 C         -6.2294655525       -1.5337489346       -3.3789132816
 H         -5.5252857031       -0.9071488594       -3.9193967379
 H         -6.9610766530       -0.8913663526       -2.8940807342
 H         -6.7485049389       -2.1549928704       -4.1030984133
 C         -6.5702657424       -3.3533952208       -1.7151481047
 H         -6.1166699985       -4.0267722060       -0.9911110110
 H         -7.0223208688       -3.9636966144       -2.4921402192
 H         -7.3669822710       -2.7872851474       -1.2382450278
 H         -2.6691260866        1.6098891374        4.8143230071
