77
       -105.32623157
 H          0.4168724466        3.2284320469        0.0114743211
 C          1.3162497504        2.6304036601        0.0223684798
 C          3.6465516132        1.0961884225        0.0779807854
 C          1.2473529216        1.3212936747        0.5008626708
 C          2.4984209477        3.1839828672       -0.4142826624
 C          3.6954154650        2.4387910434       -0.3773589807
 C          2.4180151847        0.5165128606        0.4986331024
 H          2.5230231091        4.2026671612       -0.7702549917
 C          4.8392597118        0.3398617910        0.1163286989
 C          7.2509465894       -1.1777239766        0.2444315217
 C          4.8255321732       -1.0059318526        0.5532824391
 C          6.0718984010        0.9184310250       -0.2748098960
 C          7.2486172777        0.1453906346       -0.1999224187
 C          6.0330152377       -1.7374362938        0.6064122956
 H          8.1735119205        0.6138225656       -0.5008583495
 H          5.9811222635       -2.7596289062        0.9454075415
 C          4.9307343922        2.9937538065       -0.7776069982
 H          4.9518761246        4.0158552439       -1.1249008884
 C          6.0890141745        2.2581066256       -0.7229852385
 H          7.0274962896        2.6998808489       -1.0226880438
 C          2.4307181795       -0.8433922746        0.8965310155
 H          1.5087336915       -1.3290950714        1.1761166113
 C          3.5891697093       -1.5766528655        0.9235659582
 H          3.5644072011       -2.6096867268        1.2370482088
 C          8.5619460946       -1.9370223408        0.3147457463
 C          9.1792975239       -1.9924411444       -1.0914604074
 H          9.4043263821       -1.0020566881       -1.4770994243
 H          8.5034734187       -2.4875893039       -1.7854169186
 H         10.1071768521       -2.5561018277       -1.0571391484
 C          8.3836076892       -3.3677313645        0.8249739150
 H          7.7457647082       -3.9486835904        0.1624274484
 H          7.9711877880       -3.3807340704        1.8315115597
 H          9.3525922525       -3.8578878035        0.8611005194
 C          9.5075861111       -1.1914418965        1.2695447053
 H          9.7357686248       -0.1893962960        0.9170296814
 H         10.4430158309       -1.7372918413        1.3526150339
 H          9.0662372283       -1.1154937577        2.2610135297
 C         -0.0698614743        0.8553473742        1.0484661354
 H         -0.4697887642        1.6702985073        1.6604005070
 H          0.0620251319       -0.0027573810        1.7124598430
 H          0.3199430743        0.4151566190       -1.5915674192
 C         -0.7206327292        0.3168022410       -1.3203378670
 C         -3.4165323277        0.0484501393       -0.6378726876
 C         -1.6429230331        0.0144643593       -2.2991717763
 C         -1.0972123229        0.5036403694        0.0069861020
 C         -2.4644182959        0.3502490323        0.3720588346
 C         -3.0109164077       -0.1158609206       -1.9871335557
 C         -4.7832010650       -0.0906110835       -0.3077890420
 C         -7.5425597326       -0.3560524533        0.3628647450
 C         -5.7403924478       -0.3789705551       -1.3117684994
 C         -5.2200700991        0.0564400650        1.0296844960
 C         -6.5920192655       -0.0809555938        1.3373369854
 C         -7.0980661411       -0.5029178020       -0.9515236385
 H         -6.8853329914        0.0368489517        2.3681717099
 H         -7.8052157372       -0.7204483779       -1.7377107402
 C         -2.9297100342        0.4803785303        1.7033380360
 H         -2.2304585328        0.6912794682        2.4971215247
 C         -4.2564684669        0.3373304257        2.0213367053
 H         -4.5775093412        0.4422976423        3.0469401978
 C         -3.9790052449       -0.4081869798       -2.9734232394
 H         -3.6566664797       -0.5313625821       -3.9965041279
 C         -5.3069431826       -0.5334474965       -2.6476080638
 H         -6.0353672579       -0.7536107181       -3.4135736148
 C         -9.0209138062       -0.4992815860        0.6706989921
 C         -9.3310399570       -0.3147870653        2.1570656230
 H        -10.4001253101       -0.4258624329        2.3160511407
 H         -9.0496425035        0.6783166962        2.5004002411
 H         -8.8289983941       -1.0660190432        2.7628073834
 C         -9.4803355246       -1.9030605284        0.2468673364
 H         -8.9138459260       -2.6660185215        0.7764573380
 H         -9.3618350540       -2.0651432897       -0.8208338219
 H        -10.5317379592       -2.0285892252        0.4890164545
 C         -9.7926753164        0.5648548239       -0.1252056772
 H        -10.8519184340        0.4915762648        0.1039297134
 H         -9.6727724583        0.4371472032       -1.1974840577
 H         -9.4527657851        1.5628654414        0.1430420395
 H         -1.3217638552       -0.1213936126       -3.3208083173
