77
       -105.32619314
 H         -0.3428687341        1.4667039446       -0.6656488754
 C          0.6762894860        1.1789069908       -0.4553685615
 C          3.3245274132        0.4683713988        0.0820699457
 C          1.0699066265       -0.1368150109       -0.6675494765
 C          1.5581927926        2.1337608445        0.0106754582
 C          2.8995159079        1.8066887581        0.2820700624
 C          2.4143698689       -0.5175566193       -0.3836701940
 H          1.2225720028        3.1483515668        0.1637680464
 C          4.6694219474        0.1259593040        0.3471341696
 C          7.3906952873       -0.5591984834        0.8576839779
 C          5.1235741249       -1.1997501467        0.1593785717
 C          5.5877660197        1.1058943185        0.8012450768
 C          6.9292661405        0.7388818790        1.0460351173
 C          6.4748706290       -1.5130544460        0.4177809736
 H          7.6004729558        1.5100799617        1.3886904271
 H          6.7906646121       -2.5334565348        0.2611545533
 C          3.8275457195        2.7681120209        0.7430280475
 H          3.4909395911        3.7829175363        0.8937552848
 C          5.1341816719        2.4292742462        0.9939581830
 H          5.8312417692        3.1766765941        1.3422134942
 C          2.8935940812       -1.8392952611       -0.5462604813
 H          2.2234763350       -2.6150750579       -0.8816307304
 C          4.1994528689       -2.1697972202       -0.2847618893
 H          4.5339002316       -3.1873731217       -0.4213810824
 C          8.8315875641       -0.9643786053        1.1050932141
 C          9.6908006353        0.1986726273        1.6037781145
 H          9.3212519268        0.5867516279        2.5504218088
 H          9.7343488705        1.0022639459        0.8719807746
 H         10.7065387960       -0.1511583633        1.7665961400
 C          9.4262978528       -1.4803918958       -0.2146983000
 H          9.3900242985       -0.7059901530       -0.9778833959
 H          8.8962267959       -2.3536646471       -0.5850383886
 H         10.4646797224       -1.7591239595       -0.0600810000
 C          8.8600662449       -2.0793967328        2.1617753155
 H          8.4049948826       -1.7379733020        3.0890033507
 H          9.8898087359       -2.3561120506        2.3688518420
 H          8.3358718793       -2.9706235760        1.8281181636
 C          0.0983214906       -1.1549284468       -1.2019486850
 H         -0.0808242812       -1.9094633344       -0.4302878234
 H          0.5768249051       -1.6668188418       -2.0425617986
 H         -0.4098070121       -0.2944979664       -3.6555745995
 C         -1.2887278098       -0.2186092509       -3.0325776142
 C         -3.5751101333       -0.0382859974       -1.4416012743
 C         -2.4688846652        0.2297167343       -3.5896581169
 C         -1.2036191145       -0.5949707464       -1.6956200261
 C         -2.3529657786       -0.4762950947       -0.8637811328
 C         -3.6417574755        0.3116163823       -2.8146624747
 C         -4.7430437738        0.0492069448       -0.6514617252
 C         -7.1063464347        0.2012635085        0.9377583834
 C         -5.9722236703        0.4630747942       -1.2236657284
 C         -4.7060334526       -0.2794046753        0.7233376447
 C         -5.8891918758       -0.1950857687        1.4878681549
 C         -7.1275031434        0.5271063792       -0.4140587829
 H         -5.8279937937       -0.4531800215        2.5343583560
 H         -8.0459201309        0.8416974616       -0.8832591999
 C         -2.3405187620       -0.7733596404        0.5203219706
 H         -1.4185367576       -1.0720846865        0.9944736077
 C         -3.4743974763       -0.6785340406        1.2865256051
 H         -3.4337499526       -0.9154175467        2.3392917944
 C         -4.8740202210        0.7301329724       -3.3654873658
 H         -4.9112690218        0.9932566029       -4.4120131360
 C         -6.0086283093        0.7992068711       -2.5945556555
 H         -6.9439428472        1.1136438977       -3.0328343642
 C         -8.3409083577        0.2638927363        1.8175066009
 C         -8.6027706790       -1.1338539693        2.3992238923
 H         -7.7803593685       -1.4766155395        3.0211093195
 H         -8.7558370243       -1.8566350439        1.6007852858
 H         -9.4985087228       -1.1091791339        3.0131210106
 C         -9.5860076569        0.7113415905        1.0499425843
 H         -9.8266536833        0.0187418574        0.2464831087
 H         -9.4636194691        1.7129866180        0.6437938481
 H        -10.4347368906        0.7341415395        1.7279926846
 C         -8.0835255364        1.2640370925        2.9553598984
 H         -7.2519630965        0.9587577563        3.5846126305
 H         -8.9681232248        1.3361710865        3.5815152069
 H         -7.8680117753        2.2517362492        2.5534509487
 H         -2.5052699060        0.5054393983       -4.6326479513
