77
       -105.32620467
 H          1.0351179527        4.4260689052       -0.3443919632
 C          1.7432361679        3.6119146975       -0.3005414503
 C          3.5929619879        1.5210642045       -0.1998473508
 C          1.3104990186        2.3195120486       -0.5854705470
 C          3.0556712118        3.8826634405        0.0256514082
 C          4.0134309878        2.8488128971        0.0713467252
 C          2.2376056338        1.2426638276       -0.5174361806
 H          3.3633224800        4.8952951605        0.2380601666
 C          4.5409173116        0.4747116212       -0.1589950236
 C          6.4538110918       -1.6383044271       -0.1033055045
 C          4.1511731932       -0.8596248775       -0.4212252590
 C          5.8992013696        0.7461538219        0.1388890718
 C          6.8238828987       -0.3182078403        0.1577637740
 C          5.1179674222       -1.8892396095       -0.3870426031
 H          7.8528731456       -0.0819555160        0.3830325846
 H          4.7834206160       -2.8930786215       -0.5940869568
 C          5.3702325159        3.0987042618        0.3738362213
 H          5.6782146575        4.1131335132        0.5785021703
 C          6.2892357436        2.0779473241        0.4042511702
 H          7.3239185590        2.2865047388        0.6317457391
 C          1.8721652501       -0.1037185070       -0.7594473012
 H          0.8439844149       -0.3438404720       -0.9821651510
 C          2.7941683583       -1.1176790028       -0.7116871611
 H          2.4867388675       -2.1347971885       -0.9040684766
 C          7.5082785081       -2.7281608912       -0.0692566476
 C          8.5819511347       -2.4044698091       -1.1198653010
 H          8.1396567496       -2.3474653872       -2.1121318563
 H          9.3322853700       -3.1898781914       -1.1246935685
 H          9.0842944670       -1.4637884613       -0.9125112902
 C          6.9309523631       -4.1114986434       -0.3736178081
 H          6.1820199714       -4.3991789560        0.3611107585
 H          7.7288190615       -4.8479410849       -0.3348550182
 H          6.4970222642       -4.1495109901       -1.3703853886
 C          8.1410485496       -2.7596620219        1.3306049310
 H          8.6391685343       -1.8253711851        1.5737948251
 H          8.8807853788       -3.5537527994        1.3758486623
 H          7.3838365125       -2.9538734306        2.0872687294
 C         -0.1111632848        2.0994537268       -1.0091714140
 H         -0.1143810217        1.5083848875       -1.9299123413
 H         -0.5566031212        3.0704722514       -1.2525184452
 H          0.4113269046        1.6521985117        1.6053010563
 C         -0.5705983623        1.2980399606        1.3293082046
 C         -3.1264799991        0.4031746187        0.6422234892
 C         -1.3723483857        0.7261135622        2.2933167658
 C         -0.9983912360        1.4407925622        0.0116533092
 C         -2.3020785564        0.9983839512       -0.3497543878
 C         -2.6643312772        0.2613116577        1.9757707751
 C         -4.4239035036       -0.0476992323        0.3114601001
 C         -7.0372017907       -0.9675564943       -0.3654577967
 C         -5.2524085412       -0.6405924149        1.2959787136
 C         -4.9204654483        0.0896270321       -1.0062279048
 C         -6.2180593487       -0.3744984107       -1.3173291216
 C         -6.5398405226       -1.0866053313        0.9327583211
 H         -6.5601764028       -0.2531471256       -2.3325987244
 H         -7.1485204817       -1.5350156607        1.7034232573
 C         -2.8303849446        1.1327764925       -1.6570151947
 H         -2.2370267861        1.5960935810       -2.4295218001
 C         -4.0917157057        0.6960508764       -1.9738747902
 H         -4.4647205593        0.8160620209       -2.9800627743
 C         -3.5068912017       -0.3270133851        2.9448452893
 H         -3.1441702154       -0.4247240392        3.9571071448
 C         -4.7651944288       -0.7672684807        2.6161141019
 H         -5.3974821301       -1.2146273969        3.3683412336
 C         -8.4290233617       -1.4814508612       -0.6804066798
 C         -8.8096634739       -1.2815400215       -2.1482179034
 H         -8.1332890641       -1.8186872486       -2.8096260234
 H         -8.8198102743       -0.2270780210       -2.4150591477
 H         -9.8100420246       -1.6714046131       -2.3148304123
 C         -9.4425079156       -0.7280333927        0.1948825372
 H         -9.2683603641       -0.8945734849        1.2543244524
 H        -10.4468106154       -1.0707848900       -0.0369142318
 H         -9.3926792066        0.3413470660        0.0016063646
 C         -8.4813553309       -2.9843376607       -0.3633060424
 H         -9.4654567556       -3.3724829693       -0.6096402797
 H         -8.2967032877       -3.1853350674        0.6883318811
 H         -7.7432346718       -3.5244706776       -0.9524201089
 H         -1.0155177237        0.6342794741        3.3079850146
