77
       -105.32614204
 H         -0.2060805717        1.6239242790       -0.5918494016
 C          0.8127313382        1.3107998465       -0.4186206075
 C          3.4543398657        0.5267560901        0.0439485729
 C          1.1269066773       -0.0418809405       -0.4755341292
 C          1.7716794812        2.2675526124       -0.1514292239
 C          3.1119542761        1.9028827434        0.0742550374
 C          2.4666133871       -0.4585847458       -0.2223070509
 H          1.4974037874        3.3111598718       -0.1180484002
 C          4.7937050972        0.1447848091        0.2815996129
 C          7.4995273064       -0.6256804860        0.7506616900
 C          5.1646136732       -1.2194788013        0.2687035633
 C          5.7888363642        1.1218536582        0.5364034549
 C          7.1211283673        0.7122944160        0.7633351405
 C          6.5092759631       -1.5749521968        0.5053382439
 H          7.8523007450        1.4822623873        0.9510166638
 H          6.7591105924       -2.6251048840        0.4908681806
 C          4.1170463908        2.8623759386        0.3335107519
 H          3.8438549102        3.9068021767        0.3536861424
 C          5.4182858102        2.4844572886        0.5552467024
 H          6.1744272295        3.2305276832        0.7487171454
 C          2.8658195629       -1.8164467005       -0.2188447349
 H          2.1369284889       -2.5902982165       -0.4013418649
 C          4.1657314590       -2.1850297051        0.0193784937
 H          4.4374227604       -3.2300844125        0.0155872219
 C          8.9264786077       -1.0802550146        0.9929437064
 C          9.8823539992        0.0894309260        1.2328195001
 H          9.6016320977        0.6563988904        2.1176312314
 H          9.9206271097        0.7526704393        0.3714575449
 H         10.8853494061       -0.2957157946        1.3949687800
 C          9.4111369970       -1.8617905236       -0.2380261919
 H         10.4418192166       -2.1704310244       -0.0887892468
 H          9.3666589021       -1.2376466951       -1.1279189874
 H          8.8172226311       -2.7545436385       -0.4134743009
 C          8.9483291300       -1.9905216018        2.2309761458
 H          9.9683273792       -2.3055470567        2.4313688717
 H          8.3439396045       -2.8824294737        2.0903087400
 H          8.5777010744       -1.4566771637        3.1033771962
 C          0.0673522929       -1.0619972158       -0.7933842184
 H         -0.1237091261       -1.6586371239        0.1020295895
 H          0.4701765583       -1.7449781794       -1.5486668137
 H         -0.2806554771       -0.1526772247       -3.2421519446
 C         -1.2041119820       -0.0965341572       -2.6847171367
 C         -3.5972165268        0.0186874158       -1.2541229345
 C         -2.3452008945        0.3457857447       -3.3144856260
 C         -1.2073903954       -0.4967096083       -1.3476298505
 C         -2.4098044071       -0.4058131221       -0.5966467078
 C         -3.5731862386        0.3934722640       -2.6220582236
 C         -4.8216722250        0.0644607599       -0.5507315123
 C         -7.2981951699        0.1098914643        0.8638891995
 C         -6.0143405615        0.4586523154       -1.2058865257
 C         -4.8804300181       -0.2899653271        0.8179478011
 C         -6.1187619795       -0.2580472606        1.4972883249
 C         -7.2247245304        0.4689783293       -0.4828857695
 H         -6.1222308935       -0.5356040063        2.5391473684
 H         -8.1181966926        0.7680944634       -1.0098155490
 C         -2.4941620899       -0.7189223111        0.7827758578
 H         -1.6039016686       -0.9972830308        1.3250380522
 C         -3.6829153555       -0.6638823880        1.4641278347
 H         -3.7127948033       -0.9138336200        2.5142192717
 C         -4.7689925710        0.7993729589       -3.2540314102
 H         -4.7344153336        1.0855389763       -4.2945528770
 C         -5.9588763043        0.8257358510       -2.5689923154
 H         -6.8667187740        1.1283828023       -3.0689546370
 C         -8.6409831221        0.1347536283        1.5685319252
 C         -9.5877661483       -0.8404045735        0.8512515811
 H         -9.1820199389       -1.8496088408        0.8710029260
 H         -9.7558435946       -0.5576340427       -0.1842305848
 H        -10.5496076249       -0.8485952303        1.3559329441
 C         -9.2112253212        1.5600818026        1.4985740983
 H         -9.3871563006        1.8790913468        0.4751124270
 H         -8.5302085969        2.2666991065        1.9680681925
 H        -10.1595215395        1.5968022589        2.0270014126
 C         -8.5393881545       -0.2772542147        3.0378700169
 H         -8.1677403576       -1.2945397584        3.1395236680
 H         -9.5276111470       -0.2425568495        3.4881006269
 H         -7.8992839228        0.4019459521        3.5967312994
 H         -2.3141593364        0.6403270062       -4.3524259346
