77
       -105.32610265
 H          0.3349491004        3.1041410732        0.2775826917
 C          1.2502285074        2.5315498034        0.2465329543
 C          3.6205349749        1.0603461509        0.1881398658
 C          1.2240008071        1.1991394861        0.6604824814
 C          2.4096834497        3.1383400498       -0.1797205716
 C          3.6254621286        2.4238298346       -0.2033230508
 C          2.4165625058        0.4291754083        0.6061041775
 H          2.4013487346        4.1737780940       -0.4843654424
 C          4.8320573590        0.3339411642        0.1620612317
 C          7.2800821381       -1.1299879263        0.1427201473
 C          4.8625958064       -1.0308106321        0.5348743547
 C          6.0393306532        0.9610578978       -0.2333607271
 C          7.2348128866        0.2137802144       -0.2317755326
 C          6.0874606741       -1.7347279349        0.5164302245
 H          8.1395098155        0.7192437722       -0.5341646051
 H          6.0696088652       -2.7725868870        0.8080885047
 C          4.8366870653        3.0292367752       -0.6039704040
 H          4.8242921046        4.0673974567       -0.9003119380
 C          6.0130678393        2.3210448673       -0.6149397573
 H          6.9324802858        2.7999009708       -0.9167591189
 C          2.4743053255       -0.9453122338        0.9458038331
 H          1.5727754286       -1.4659433895        1.2292680631
 C          3.6512161843       -1.6483855813        0.9126364336
 H          3.6604766882       -2.6940423823        1.1820258209
 C          8.6083531262       -1.8618643438        0.1276942996
 C          8.4778077231       -3.3222420616        0.5626607421
 H          8.1048642337       -3.4004213994        1.5815323096
 H          9.4568464255       -3.7925491217        0.5346087754
 H          7.8262959615       -3.8789355559       -0.1074143062
 C          9.5710049806       -1.1487059153        1.0902746210
 H          9.1648137510       -1.1411016524        2.0994482203
 H          9.7627005259       -0.1226143378        0.7889793280
 H         10.5212002451       -1.6747202428        1.1080724385
 C          9.1775113282       -1.8256472267       -1.2993476401
 H          8.4895440518       -2.2992777447       -1.9964131403
 H         10.1188520608       -2.3668887131       -1.3272911860
 H          9.3659645959       -0.8105813945       -1.6375339597
 C         -0.0796493585        0.6702943029        1.1837714759
 H         -0.4989963501        1.4398055055        1.8384865752
 H          0.0715157690       -0.2212498221        1.7979730330
 H          0.3799700070        0.2066811886       -1.4329743072
 C         -0.6719623607        0.1436826697       -1.1973587960
 C         -3.3977791993       -0.0292043805       -0.6133251586
 C         -1.5689511128       -0.1360234934       -2.2083469567
 C         -1.0878467488        0.3501631868        0.1132854433
 C         -2.4732391762        0.2429166210        0.4306659874
 C         -2.9490133418       -0.2169843151       -1.9456482149
 C         -4.7802613524       -0.1153832774       -0.3345261911
 C         -7.5737083374       -0.2618631190        0.2235860557
 C         -5.7113869827       -0.3740940137       -1.3718001434
 C         -5.2593545434        0.0568431557        0.9845340801
 C         -6.6457766850       -0.0199635153        1.2347018750
 C         -7.0886823731       -0.4401727281       -1.0673080350
 H         -6.9789695009        0.1181423877        2.2522334171
 H         -7.7683204697       -0.6357313077       -1.8812632190
 C         -2.9808679672        0.3903518010        1.7437177517
 H         -2.3039292849        0.5717460843        2.5636946152
 C         -4.3232679103        0.3000795187        2.0125421929
 H         -4.6775885374        0.4184506365        3.0256717804
 C         -3.8912546913       -0.4830414039       -2.9650776192
 H         -3.5359242077       -0.6270313986       -3.9744614104
 C         -5.2338972484       -0.5567801719       -2.6881758383
 H         -5.9409663687       -0.7570172214       -3.4792021432
 C         -9.0514023516       -0.3170948308        0.5623549018
 C         -9.9238811258       -0.6006170297       -0.6615379657
 H         -9.6848089058       -1.5651622938       -1.1039456761
 H         -9.8208481812        0.1804390913       -1.4116056218
 H        -10.9669761386       -0.6282410663       -0.3585466453
 C         -9.4672984641        1.0385483318        1.1549129987
 H         -9.2812038600        1.8393353419        0.4424386251
 H         -8.9305674613        1.2626772050        2.0727047590
 H        -10.5291847356        1.0242933371        1.3829414341
 C         -9.2827270986       -1.4312140001        1.5948349568
 H         -8.9591911560       -2.3913412698        1.1987511572
 H        -10.3420243643       -1.4968567248        1.8259060684
 H         -8.7494340782       -1.2437373633        2.5226680988
 H         -1.2149273564       -0.2902930197       -3.2164483437
