77
       -105.32610518
 H          1.0192691650        4.3107138376       -1.0116927324
 C          1.7334802985        3.5184244088       -0.8432496016
 C          3.6034499335        1.4863572843       -0.4229608657
 C          1.3135066143        2.1960701553       -0.9284592142
 C          3.0446950274        3.8482175272       -0.5602159925
 C          4.0105235733        2.8438554451       -0.3573548555
 C          2.2515104603        1.1493422801       -0.6951924140
 H          3.3416094601        4.8845723185       -0.5045560764
 C          4.5614004926        0.4678515980       -0.2217262209
 C          6.4991493641       -1.5881521959        0.1608169543
 C          4.1832257099       -0.8932912071       -0.2767231808
 C          5.9176613923        0.7931980984        0.0321870080
 C          6.8567403988       -0.2453500425        0.2163873156
 C          5.1614906375       -1.8915262076       -0.0835187796
 H          7.8802032350        0.0374927274        0.4037885813
 H          4.8417774422       -2.9214700912       -0.1331412930
 C          5.3655365662        3.1487141617       -0.0957662936
 H          5.6641077698        4.1852767783       -0.0481974278
 C          6.2936463211        2.1530645674        0.0905425819
 H          7.3259556110        2.4036971996        0.2837892486
 C          1.8979470158       -0.2204654896       -0.7282668575
 H          0.8723530710       -0.5012392669       -0.9117046542
 C          2.8290549635       -1.2068016892       -0.5252278243
 H          2.5312410984       -2.2442113782       -0.5594875641
 C          7.4975547538       -2.7141751007        0.3543064031
 C          7.5120104300       -3.5823702106       -0.9132922605
 H          7.7912870758       -2.9872298531       -1.7799592885
 H          6.5445640115       -4.0380846088       -1.1057535259
 H          8.2404073155       -4.3798803490       -0.7982499319
 C          7.0587768685       -3.5582980326        1.5610503718
 H          7.0115025054       -2.9451457823        2.4584393813
 H          7.7797572943       -4.3531699689        1.7287547713
 H          6.0859727790       -4.0164495532        1.4046230912
 C          8.9162422396       -2.2026552829        0.6090608441
 H          9.2843730052       -1.6194142410       -0.2320048269
 H          9.5840348701       -3.0501149452        0.7373582024
 H          8.9658382665       -1.6053206346        1.5167586068
 C         -0.1045924411        1.9000035300       -1.3169816472
 H         -0.0996697923        1.1699380579       -2.1319853144
 H         -0.5549159562        2.8166993079       -1.7135942954
 H          0.4170937552        1.8487012974        1.3364151986
 C         -0.5662072281        1.4610064707        1.1159848722
 C         -3.1257506536        0.4832962454        0.5695229792
 C         -1.3704996236        1.0438234300        2.1544885806
 C         -0.9932899327        1.4058130402       -0.2083882693
 C         -2.2984461257        0.9183900291       -0.5000916598
 C         -2.6645728028        0.5423439286        1.9096286266
 C         -4.4251080242       -0.0065732406        0.3093500145
 C         -7.0427079901       -1.0055855613       -0.2234513136
 C         -5.2568034224       -0.4398556196        1.3713204878
 C         -4.9204524067       -0.0679422042       -1.0144939933
 C         -6.2202205500       -0.5674909091       -1.2531988090
 C         -6.5464189474       -0.9291978534        1.0783807692
 H         -6.5614214570       -0.5993823293       -2.2755086996
 H         -7.1577637398       -1.2524510292        1.9073917061
 C         -2.8252277760        0.8551139106       -1.8133189843
 H         -2.2291110662        1.1929558003       -2.6463797012
 C         -4.0882817059        0.3807828400       -2.0619020065
 H         -4.4600622104        0.3481830326       -3.0751441242
 C         -3.5101180182        0.1108446365        2.9556008937
 H         -3.1480980669        0.1652636607        3.9713625112
 C         -4.7704655992       -0.3680287264        2.6959045820
 H         -5.4050321869       -0.6937753458        3.5064484519
 C         -8.4372439091       -1.5537795341       -0.4586057424
 C         -8.4983620587       -2.9908711504        0.0825396759
 H         -8.3130877716       -3.0314894387        1.1523280735
 H         -7.7646551617       -3.6187304974       -0.4185415175
 H         -9.4852954421       -3.4055342599       -0.1013775751
 C         -8.8161837504       -1.5765546685       -1.9402521887
 H         -8.1419531961       -2.2106258809       -2.5119409701
 H         -8.8213627466       -0.5745832518       -2.3635795106
 H         -9.8182423775       -1.9827238903       -2.0471645369
 C         -9.4467228846       -0.6706259178        0.2910756749
 H        -10.4530531407       -1.0376084411        0.1109013907
 H         -9.3892102670        0.3572312443       -0.0605076555
 H         -9.2752524996       -0.6773609304        1.3639259699
 H         -1.0140701926        1.1039798316        3.1716739478
