77
       -105.32603815
 H          1.0025394254        4.3989375691        0.2321707054
 C          1.7212490772        3.5932433311        0.2096286751
 C          3.6026089238        1.5290969626        0.1643530378
 C          1.3057601458        2.3038518606        0.5213581020
 C          3.0334899046        3.8757249362       -0.1163607776
 C          4.0051886440        2.8567503425       -0.1323899650
 C          2.2494224615        1.2372228084        0.4793819178
 H          3.3268310660        4.8881112643       -0.3494029784
 C          4.5663884313        0.4963671350        0.1515550300
 C          6.5161636760       -1.5838402814        0.1515019829
 C          4.1927503070       -0.8368364718        0.4374362360
 C          5.9240792324        0.7803526009       -0.1413569873
 C          6.8691947474       -0.2689600809       -0.1323946867
 C          5.1767688401       -1.8480754511        0.4294311697
 H          7.8936640122       -0.0169795026       -0.3550123888
 H          4.8601671203       -2.8558921474        0.6520127427
 C          5.3616210156        3.1191028352       -0.4300647908
 H          5.6566393922        4.1332640412       -0.6543665378
 C          6.2955451194        2.1115074409       -0.4311281382
 H          7.3289503521        2.3306016772       -0.6545046272
 C          1.9005771717       -0.1082545955        0.7448767505
 H          0.8741760391       -0.3586859688        0.9641820753
 C          2.8372009114       -1.1099602511        0.7232723844
 H          2.5427336351       -2.1275122681        0.9329676346
 C          7.5211913341       -2.7204779585        0.1667497912
 C          8.9428434255       -2.2503861099       -0.1450427813
 H          9.2925019483       -1.5303364644        0.5914462251
 H          9.0083063652       -1.8156257744       -1.1399491346
 H          9.6157747803       -3.1029523228       -0.1151023975
 C          7.1063370193       -3.7563309365       -0.8898050838
 H          6.1296902882       -4.1833486213       -0.6786242427
 H          7.8295393931       -4.5665474710       -0.9066253281
 H          7.0784529032       -3.3027406944       -1.8782172505
 C          7.5155951835       -3.3653212769        1.5613163920
 H          8.2519928131       -4.1630752208        1.5948384914
 H          6.5479078832       -3.7932480784        1.8084963128
 H          7.7725798790       -2.6313525187        2.3219584794
 C         -0.1134882259        2.0742561123        0.9487580526
 H         -0.5651904419        3.0434754916        1.1872628475
 H         -0.1112916471        1.4881220345        1.8727540553
 H          0.4209954296        1.5611784877       -1.6543937897
 C         -0.5657740370        1.2240377213       -1.3743575757
 C         -3.1339857527        0.3679801539       -0.6827802266
 C         -1.3692697157        0.6356630372       -2.3303162379
 C         -0.9986534793        1.4024921532       -0.0654832608
 C         -2.3106412158        0.9803782448        0.2994026074
 C         -2.6652114028        0.1904584411       -2.0096248568
 C         -4.4366884804       -0.0651526249       -0.3487421877
 C         -7.0594388132       -0.9566265683        0.3301804005
 C         -5.2655470699       -0.6776654950       -1.3221760687
 C         -4.9376336052        0.1091825809        0.9619159466
 C         -6.2389015567       -0.3393535055        1.2722924183
 C         -6.5592936188       -1.1110547830       -0.9580513897
 H         -6.5920188802       -0.1903552496        2.2815299307
 H         -7.1611777479       -1.5751892732       -1.7228968794
 C         -2.8435512784        1.1522027426        1.5993341962
 H         -2.2503220584        1.6295462340        2.3632676353
 C         -4.1103582621        0.7337200404        1.9199577102
 H         -4.4879836155        0.8817585336        2.9206736378
 C         -3.5089127139       -0.4150332831       -2.9684626894
 H         -3.1424350302       -0.5393667058       -3.9764785669
 C         -4.7717112388       -0.8387737397       -2.6353444919
 H         -5.4031874278       -1.3000394339       -3.3798227721
 C         -8.4424417501       -1.4280911700        0.7381184946
 C         -9.1978590678       -2.0955421931       -0.4123019775
 H        -10.1739305481       -2.4177600348       -0.0601039982
 H         -8.6717460113       -2.9765988924       -0.7733492571
 H         -9.3585642585       -1.4033899455       -1.2358181446
 C         -9.2549411978       -0.2156926223        1.2183668865
 H        -10.2556426975       -0.5359972827        1.4937087449
 H         -9.3388662438        0.5252159127        0.4263099455
 H         -8.8042368733        0.2577756900        2.0862952017
 C         -8.2974536008       -2.4455549688        1.8806962847
 H         -7.8386448986       -2.0054059809        2.7617757509
 H         -7.6926646227       -3.2922790038        1.5631086096
 H         -9.2788399905       -2.8145679007        2.1643441868
 H         -1.0065888844        0.5162473731       -3.3400795512
