77
       -105.32604347
 H         -0.2645022827        1.4248724658       -0.3727817880
 C          0.7743708496        1.1566989048       -0.2497310479
 C          3.4633498517        0.4811021897        0.0824715995
 C          1.1092427940       -0.1813336209       -0.0508630343
 C          1.7323197334        2.1456091026       -0.2940292270
 C          3.0980899985        1.8332925160       -0.1415417467
 C          2.4732473950       -0.5368540445        0.1420379260
 H          1.4423037439        3.1736924015       -0.4496843905
 C          4.8284794031        0.1564400120        0.2481715664
 C          7.5847141889       -0.5097940232        0.5585026247
 C          5.2280837179       -1.1797670178        0.4857544714
 C          5.8220307550        1.1642147909        0.1796222996
 C          7.1767565814        0.8058302021        0.3357204548
 C          6.5991128166       -1.4850410043        0.6363896442
 H          7.9115010856        1.5946230621        0.2768380453
 H          6.8630701294       -2.5149794855        0.8155138535
 C          4.1018136158        2.8255355833       -0.1979809759
 H          3.8085040188        3.8510290914       -0.3656502656
 C          5.4272178181        2.5020747608       -0.0449944821
 H          6.1831401473        3.2714497381       -0.0939898783
 C          2.9029519573       -1.8618215552        0.3997838197
 H          2.1772214582       -2.6560849899        0.4780176219
 C          4.2285351723       -2.1722644849        0.5666256383
 H          4.5207349072       -3.1932887172        0.7618232464
 C          9.0626918112       -0.8177079214        0.7044886717
 C          9.7834117211       -0.3855622536       -0.5821800657
 H          9.3776839991       -0.9137019552       -1.4424184544
 H         10.8403585404       -0.6230627532       -0.5028024118
 H          9.6933408140        0.6824378412       -0.7602294050
 C          9.3316886700       -2.3055603023        0.9354824541
 H          8.9785969325       -2.9062466858        0.1000798732
 H          8.8691565010       -2.6538710245        1.8563411311
 H         10.4025596858       -2.4659235119        1.0253028242
 C          9.6156812887       -0.0293071651        1.9019574674
 H          9.0907513399       -0.3036761456        2.8144377599
 H          9.5224627660        1.0438760025        1.7606594168
 H         10.6693256997       -0.2592456959        2.0315892781
 C          0.0208472623       -1.2188948101       -0.0146147742
 H         -0.2137673094       -1.4342155277        1.0307580081
 H          0.3956541041       -2.1480279255       -0.4532104259
 H         -0.1194034402       -0.9910845281       -2.6227388782
 C         -1.0850175360       -0.7949325789       -2.1802234210
 C         -3.5829596116       -0.3115025068       -1.0353370257
 C         -2.1602498781       -0.5319953883       -2.9969447065
 C         -1.2062623755       -0.8358162606       -0.7898329042
 C         -2.4654923638       -0.5643170440       -0.1917703907
 C         -3.4377875027       -0.2990850670       -2.4463629508
 C         -4.8577939866       -0.0724839508       -0.4748369014
 C         -7.4321155969        0.3925404464        0.6633463370
 C         -5.9789647703        0.1619163530       -1.3086553870
 C         -5.0392963905       -0.0665650543        0.9285941069
 C         -6.3238646071        0.1665358901        1.4684877076
 C         -7.2395913128        0.3866209306       -0.7190237555
 H         -6.4207522972        0.1628080725        2.5423295630
 H         -8.0757625900        0.5587733288       -1.3797701238
 C         -2.6756119550       -0.5284519740        1.2092790293
 H         -1.8455903224       -0.6813419717        1.8815071554
 C         -3.9133430158       -0.2903547441        1.7491864535
 H         -4.0375819182       -0.2738249588        2.8217221801
 C         -4.5653207345       -0.0572131899       -3.2612930527
 H         -4.4383522457       -0.0514494020       -4.3334779053
 C         -5.8035525478        0.1628515566       -2.7104629084
 H         -6.6576467849        0.3399236861       -3.3467453476
 C         -8.8205140032        0.6431203228        1.2197379669
 C         -9.7653362929       -0.4497167152        0.6956732041
 H        -10.7605541954       -0.2932073971        1.1017890507
 H         -9.4195521319       -1.4333481555        1.0060101039
 H         -9.8408907321       -0.4378198152       -0.3880797916
 C         -9.3019213563        2.0214638567        0.7395907155
 H        -10.2841091933        2.2269818728        1.1553354970
 H         -9.3805196204        2.0713190285       -0.3428269062
 H         -8.6195102746        2.8007549173        1.0720909383
 C         -8.8520524882        0.6221725562        2.7485985768
 H         -8.5470661697       -0.3466042284        3.1380985621
 H         -9.8674460484        0.8074081072        3.0879970827
 H         -8.2178894402        1.3997595347        3.1688384576
 H         -2.0383782877       -0.5170523471       -4.0692852428
