77
       -105.32601196
 H          0.2290308672        2.7120259366        0.0031868933
 C          1.1817465493        2.2031709048        0.0176013848
 C          3.6459448729        0.8972576110        0.0925093512
 C          1.2275770021        0.8797396627        0.4623365493
 C          2.3121914850        2.8759557782       -0.3834345635
 C          3.5733124110        2.2452836706       -0.3430259658
 C          2.4713535622        0.1941287203        0.4812070081
 H          2.2465114874        3.9007525746       -0.7158143211
 C          4.9066046356        0.2609008965        0.1442031332
 C          7.4537809824       -1.0155453391        0.2987822992
 C          5.0190822376       -1.0840602087        0.5695246457
 C          6.0831294112        0.9607672648       -0.2207979974
 C          7.3283271242        0.3053593494       -0.1343963059
 C          6.2911143540       -1.6947995555        0.6367284479
 H          8.2072568645        0.8651106672       -0.4165508079
 H          6.3340705225       -2.7202424510        0.9670750940
 C          4.7546735979        2.9221941488       -0.7172773921
 H          4.6816102960        3.9463415985       -1.0512561887
 C          5.9774552577        2.3010069591       -0.6548833679
 H          6.8729754976        2.8345179582       -0.9361295422
 C          2.6147883032       -1.1608184255        0.8714761482
 H          1.7442261584       -1.7406007158        1.1360532434
 C          3.8393127740       -1.7758984495        0.9162613554
 H          3.9110362030       -2.8083190170        1.2244674421
 C          8.8315617630       -1.6436634285        0.3836583128
 C          8.7870836336       -3.0892065350        0.8810423084
 H          8.3644674252       -3.1509202700        1.8815266838
 H          9.7987215609       -3.4828779325        0.9272701386
 H          8.2179241947       -3.7239524466        0.2054341733
 C          9.6864496205       -0.8176606601        1.3578069176
 H          9.2267714974       -0.7953431584        2.3435635177
 H          9.8190565033        0.2053695488        1.0169115823
 H         10.6700410736       -1.2693764590        1.4493718966
 C          9.4713254653       -1.6263366649       -1.0134990437
 H          8.8583907068       -2.1814838043       -1.7203187753
 H         10.4505060607       -2.0943852299       -0.9688344339
 H          9.6010540277       -0.6154622668       -1.3897630453
 C         -0.0566444414        0.2870606688        0.9637777006
 H         -0.3986785970        0.9296787447        1.7815491735
 H          0.0964801469       -0.7076686653        1.3888270314
 H          0.2276643118        0.1801779669       -1.7096557887
 C         -0.8128688410        0.1472641936       -1.4226443508
 C         -3.5071103537        0.0289067035       -0.6965584585
 C         -1.7769160716        0.0641010944       -2.4034202309
 C         -1.1443261113        0.1913860829       -0.0700641119
 C         -2.5119505426        0.1083030171        0.3146847762
 C         -3.1448777551        0.0160601457       -2.0679532977
 C         -4.8739513610       -0.0427914270       -0.3457994893
 C         -7.6315517202       -0.1865575548        0.3694199456
 C         -5.8722100356       -0.1131741813       -1.3487911583
 C         -5.2702790207       -0.0489678004        1.0122481794
 C         -6.6420942180       -0.1211342953        1.3416337445
 C         -7.2275543393       -0.1816027006       -0.9661629418
 H         -6.9033918301       -0.1245891369        2.3876995442
 H         -7.9659146048       -0.2333287162       -1.7520660965
 C         -2.9393483326        0.0902139905        1.6650583931
 H         -2.2105536406        0.1282029313        2.4594530927
 C         -4.2666553360        0.0125666400        2.0020092157
 H         -4.5569950170       -0.0015824352        3.0419477053
 C         -4.1539375772       -0.0559703093       -3.0537715671
 H         -3.8635591520       -0.0639065768       -4.0936745117
 C         -5.4808530584       -0.1155903693       -2.7064086377
 H         -6.2406579695       -0.1683231002       -3.4717026207
 C         -9.1095345783       -0.2644551077        0.7012976517
 C         -9.3733162960       -0.2623016277        2.2079054890
 H         -9.0115997499        0.6524924263        2.6722905534
 H         -8.9156596653       -1.1224715488        2.6916059510
 H        -10.4440558661       -0.3181706646        2.3838138663
 C         -9.6795433153       -1.5623804877        0.1077973312
 H        -10.7320507761       -1.6458681074        0.3629503163
 H         -9.1594978282       -2.4276663545        0.5131703230
 H         -9.5952285294       -1.5861134448       -0.9750971281
 C         -9.8186824680        0.9487034339        0.0795523636
 H         -9.4041531917        1.8749485067        0.4716489801
 H        -10.8760123324        0.9160995576        0.3262741417
 H         -9.7281572968        0.9623815445       -1.0030549295
 H         -1.4894207426        0.0351425962       -3.4435147919
