77
       -105.32598302
 H          1.0225130384        4.4468370923        0.2073520347
 C          1.7329098614        3.6336094475        0.1938094236
 C          3.5929611299        1.5496370351        0.1710254830
 C          1.3028299853        2.3508012816        0.5126062840
 C          3.0492560999        3.8998854869       -0.1294909610
 C          4.0100692281        2.8705064741       -0.1358170387
 C          2.2359839650        1.2744952482        0.4845325132
 H          3.3539512180        4.9073614331       -0.3691793502
 C          4.5458833752        0.5068137790        0.1694373366
 C          6.4732722891       -1.5939878897        0.1901743537
 C          4.1578119935       -0.8196278080        0.4672026943
 C          5.9068802931        0.7737307382       -0.1241877661
 C          6.8406444856       -0.2855852148       -0.1052285199
 C          5.1310798722       -1.8411668497        0.4702243387
 H          7.8679449698       -0.0466579343       -0.3292044461
 H          4.8037395147       -2.8432176682        0.7030609841
 C          5.3696803894        3.1158568848       -0.4335148483
 H          5.6758970353        4.1249169424       -0.6656885128
 C          6.2927438822        2.0983061579       -0.4251491148
 H          7.3286207460        2.3044452909       -0.6494130367
 C          1.8727464227       -0.0645651832        0.7626955623
 H          0.8434767214       -0.3021756749        0.9828232459
 C          2.7990731931       -1.0759204103        0.7534297138
 H          2.4938540824       -2.0882139127        0.9729786577
 C          7.4658164703       -2.7413256745        0.2168620640
 C          7.4570992965       -3.3675428392        1.6199224398
 H          6.4849588404       -3.7799837104        1.8758019633
 H          7.7256643664       -2.6267704736        2.3698756138
 H          8.1837276452       -4.1738210219        1.6616531011
 C          8.8915556031       -2.2910046559       -0.1051889816
 H          9.2524424056       -1.5673277229        0.6222305685
 H          8.9579653235       -1.8675253935       -1.1048950763
 H          9.5547391957       -3.1509227225       -0.0687872483
 C          7.0367932623       -3.7865011875       -0.8246858754
 H          6.0559885049       -4.1998239455       -0.6057305680
 H          7.7507998250       -4.6049749211       -0.8322540446
 H          7.0116532453       -3.3459325756       -1.8190421153
 C         -0.1215785233        2.1359045373        0.9303227082
 H         -0.5727016316        3.1110769249        1.1446889598
 H         -0.1303163931        1.5686372721        1.8658370606
 H          0.4234671301        1.6224357722       -1.6678409755
 C         -0.5589962649        1.2719338561       -1.3890544155
 C         -3.1161580609        0.3818553338       -0.7004735453
 C         -1.3519902429        0.6701143736       -2.3451820743
 C         -0.9968747030        1.4475277490       -0.0812737175
 C         -2.3037246637        1.0085898585        0.2818930415
 C         -2.6421554190        0.2074184505       -2.0258661148
 C         -4.4134473860       -0.0685692191       -0.3682183729
 C         -7.0248327499       -0.9953943898        0.3072445633
 C         -5.2314521392       -0.6951072852       -1.3419047938
 C         -4.9199116884        0.1023347288        0.9407883454
 C         -6.2152923578       -0.3640614041        1.2495376263
 C         -6.5197390861       -1.1457786869       -0.9795390716
 H         -6.5727058845       -0.2176323762        2.2576420920
 H         -7.1133200755       -1.6201636280       -1.7445813338
 C         -2.8425387392        1.1773540175        1.5798214084
 H         -2.2584526870        1.6662366347        2.3435293810
 C         -4.1040530080        0.7418896964        1.8987181963
 H         -4.4862704854        0.8879205183        2.8979852928
 C         -3.4751756150       -0.4120685643       -2.9850485716
 H         -3.1047473085       -0.5336164550       -3.9919554205
 C         -4.7326787850       -0.8525012376       -2.6536435657
 H         -5.3561284746       -1.3241869526       -3.3983487185
 C         -8.4016145770       -1.4862083059        0.7133250140
 C         -8.2434676565       -2.5007869803        1.8567440539
 H         -7.7917708199       -2.0535223679        2.7379311130
 H         -7.6264123021       -3.3390782259        1.5403256872
 H         -9.2198441081       -2.8834441520        2.1396077712
 C         -9.1455491138       -2.1652946986       -0.4377708786
 H        -10.1177041500       -2.5006864671       -0.0870322120
 H         -8.6066267901       -3.0393465939       -0.7969596509
 H         -9.3143212070       -1.4762501065       -1.2622858846
 C         -9.2323788584       -0.2854744138        1.1915295640
 H        -10.2289082669       -0.6200352626        1.4650473160
 H         -9.3254222517        0.4538533783        0.3990206590
 H         -8.7902901125        0.1947544815        2.0601595625
 H         -0.9857235975        0.5536160966       -3.3539840827
