77
       -105.32640252
 H          0.7303538475        3.9260860317        0.2852204700
 C          1.5334799421        3.2048219629        0.2528224285
 C          3.6239437095        1.3552871877        0.1839303548
 C          1.2717576265        1.8837729537        0.6099938801
 C          2.7922800322        3.6200895154       -0.1250933494
 C          3.8701622195        2.7114387940       -0.1523700417
 C          2.3207724183        0.9256049239        0.5512250326
 H          2.9664673841        4.6520007364       -0.3895556457
 C          4.6936759249        0.4331619058        0.1558524807
 C          6.8545423587       -1.4270031740        0.1308247642
 C          4.4793383851       -0.9280383935        0.4767695818
 C          6.0005398245        0.8579186222       -0.1888942327
 C          7.0503596850       -0.0833649009       -0.1917611606
 C          5.5664782934       -1.8303822710        0.4567826713
 H          8.0361819013        0.2690972326       -0.4549893012
 H          5.3642858389       -2.8590250236        0.7088918287
 C          5.1778729829        3.1143160221       -0.5020155656
 H          5.3516082520        4.1492496288       -0.7560044946
 C          6.2162072100        2.2152071378       -0.5163660957
 H          7.2117493323        2.5401953504       -0.7791746713
 C          2.1308633415       -0.4471305764        0.8440486893
 H          1.1449392444       -0.8071966858        1.0939596826
 C          3.1706841611       -1.3407033082        0.8075301799
 H          2.9949230095       -2.3806191983        1.0394006810
 C          8.0373673194       -2.3763186441        0.1125949493
 C          7.6479231993       -3.8049623971        0.4953683804
 H          6.9265307158       -4.2207846193       -0.2046895862
 H          7.2433672089       -3.8484969141        1.5042133976
 H          8.5322465550       -4.4356266456        0.4688605247
 C          9.0879942875       -1.8710083742        1.1136648873
 H          9.9309179770       -2.5559098236        1.1306210917
 H          8.6671496683       -1.8212263503        2.1156048348
 H          9.4632590861       -0.8864632765        0.8488440257
 C          8.6336076574       -2.3944693926       -1.3036415854
 H          7.8890974824       -2.7205644030       -2.0267886632
 H          9.4684668710       -3.0885774136       -1.3360588654
 H          9.0002635831       -1.4168907309       -1.6038896018
 C         -0.1058904471        1.5327041004        1.0887484429
 H         -0.5699988246        2.4449638370        1.4775250586
 H         -0.0383301173        0.8288949216        1.9239382722
 H          0.4416082690        0.9564851370       -1.5073802393
 C         -0.5835014669        0.7337406779       -1.2521654816
 C         -3.2482541496        0.1693775142       -0.6288635394
 C         -1.4230758428        0.2370446776       -2.2296080419
 C         -1.0279013914        0.9624196484        0.0443024211
 C         -2.3835866977        0.6734133759        0.3787793929
 C         -2.7702578472       -0.0529125640       -1.9456255437
 C         -4.6005410994       -0.1106298734       -0.3304294609
 C         -7.3340362462       -0.6626237152        0.2678737531
 C         -5.4730746877       -0.6060297686       -1.3319972223
 C         -5.1079596247        0.1036105257        0.9717354459
 C         -6.4640696056       -0.1770106518        1.2422851135
 C         -6.8217723241       -0.8709569364       -1.0078755592
 H         -6.8208054102       -0.0013356657        2.2459535891
 H         -7.4570279695       -1.2461198379       -1.7942396944
 C         -2.9177557549        0.8712505056        1.6743543983
 H         -2.2855297469        1.2477174512        2.4629614542
 C         -4.2312468790        0.5971698292        1.9617325912
 H         -4.6085264747        0.7615679555        2.9600345981
 C         -3.6542234028       -0.5505549882       -2.9300281871
 H         -3.2781305843       -0.7157856238       -3.9285835401
 C         -4.9676195574       -0.8189547987       -2.6333092401
 H         -5.6303234558       -1.1962607815       -3.3976693118
 C         -8.7816790811       -0.9379706560        0.6284671753
 C         -9.5889842732       -1.4751874856       -0.5544271394
 H        -10.6122775025       -1.6555355869       -0.2366921150
 H         -9.1854578583       -2.4193528529       -0.9136060624
 H         -9.6209351302       -0.7576376981       -1.3713014864
 C         -9.4259773422        0.3734799624        1.1042050718
 H        -10.4705932320        0.1979674901        1.3446119102
 H         -9.3771918045        1.1280816696        0.3221411744
 H         -8.9393844114        0.7665540171        1.9926619336
 C         -8.8205680904       -1.9788573696        1.7581333465
 H         -9.8533776015       -2.2053777594        2.0067310394
 H         -8.3311001852       -1.6201200579        2.6593569256
 H         -8.3345034137       -2.9002716810        1.4447645014
 H         -1.0488448483        0.0734170870       -3.2289279322
