77
       -105.32590806
 H          0.1426636867        2.6245826326        0.1573706784
 C          1.1083595644        2.1406706254        0.1529198346
 C          3.6049295036        0.8956961466        0.1685088656
 C          1.1970226875        0.8180835202        0.5928497579
 C          2.2134630451        2.8439608109       -0.2660381711
 C          3.4900060568        2.2440262010       -0.2569267313
 C          2.4574321956        0.1637180540        0.5837854158
 H          2.1154772090        3.8682930518       -0.5918108486
 C          4.8800117727        0.2867973167        0.1795894720
 C          7.4548558456       -0.9412256441        0.2296486378
 C          5.0337020637       -1.0584670699        0.5909936566
 C          6.0295699562        1.0141351983       -0.2163704844
 C          7.2893075796        0.3824044068       -0.1810543472
 C          6.3189369646       -1.6447063125        0.6068851915
 H          8.1469374118        0.9625411001       -0.4865818176
 H          6.3938366879       -2.6713693051        0.9276173384
 C          4.6456459135        2.9506734960       -0.6556948181
 H          4.5409086582        3.9758581111       -0.9778288455
 C          5.8828432537        2.3559690592       -0.6332913569
 H          6.7582641291        2.9112705837       -0.9348928003
 C          2.6419740454       -1.1881709311        0.9670395893
 H          1.7921629288       -1.7862111286        1.2573997808
 C          3.8804910463       -1.7764392121        0.9726337063
 H          3.9840326829       -2.8078729893        1.2750470952
 C          8.8451429024       -1.5468938255        0.2458014111
 C          9.7323244912       -0.7175617990        1.1875071620
 H          9.3180448702       -0.7102345365        2.1933825405
 H          9.8357288694        0.3100880593        0.8504958096
 H         10.7250390535       -1.1564516344        1.2298345305
 C          9.4175788944       -1.5045229367       -1.1799147199
 H          9.5114962901       -0.4877303694       -1.5509362046
 H          8.7813532618       -2.0633736766       -1.8628779166
 H         10.4057408649       -1.9554550196       -1.1867901856
 C          8.8468056491       -2.9981555471        0.7281868003
 H          8.4731220717       -3.0772563253        1.7467308962
 H          9.8654613822       -3.3760753451        0.7219187019
 H          8.2561439725       -3.6347088578        0.0730162528
 C         -0.0680363260        0.1903681183        1.1021275754
 H         -0.4418291628        0.8373767585        1.9007981401
 H          0.1167237491       -0.7894588264        1.5488315823
 H          0.3044398686       -0.1489509550       -1.5270385092
 C         -0.7470162143       -0.1333296282       -1.2808509824
 C         -3.4693248291       -0.1162641552       -0.6611016886
 C         -1.6748706417       -0.2799478704       -2.2908625769
 C         -1.1282646716        0.0341581706        0.0469844889
 C         -2.5131002985        0.0213554025        0.3816573789
 C         -3.0537743773       -0.2623425762       -2.0093430786
 C         -4.8510056579       -0.1123092513       -0.3648634321
 C         -7.6407881881       -0.0836482933        0.2311942450
 C         -5.8121227304       -0.2393623470       -1.3992389637
 C         -5.2997771661        0.0173870811        0.9697076691
 C         -6.6847461435        0.0293819816        1.2385658187
 C         -7.1864772622       -0.2206554009       -1.0758993443
 H         -6.9936907193        0.1315856273        2.2679187134
 H         -7.8888728720       -0.3171877818       -1.8882936096
 C         -2.9934154389        0.1308237547        1.7088871942
 H         -2.2963583355        0.2101876564        2.5283186598
 C         -4.3352541655        0.1277748756        1.9941987236
 H         -4.6669811398        0.2124540035        3.0182988690
 C         -4.0262009540       -0.3949207309       -3.0263800400
 H         -3.6953156128       -0.5078236181       -4.0479460170
 C         -5.3669417874       -0.3810267745       -2.7318695473
 H         -6.0972164174       -0.4807360240       -3.5208513079
 C         -9.1142357778       -0.0505279806        0.5906561976
 C         -9.4142953233       -1.2021556302        1.5625326820
 H         -8.8596593467       -1.1057274370        2.4917747303
 H         -9.1642254133       -2.1587874409        1.1089651268
 H        -10.4731981654       -1.2056581381        1.8044708763
 C        -10.0203517246       -0.1992059485       -0.6326030945
 H         -9.8698401001        0.6141813856       -1.3390168686
 H        -11.0588347537       -0.1687068520       -0.3143993881
 H         -9.8579811660       -1.1514757799       -1.1326517523
 C         -9.4220361081        1.2955019909        1.2655000756
 H         -9.1873704982        2.1201486656        0.5958732115
 H         -8.8580426270        1.4272891227        2.1848441661
 H        -10.4789914982        1.3449591558        1.5108581446
 H         -1.3472458051       -0.4080355976       -3.3114357555
