77
       -105.32589556
 H          1.1077883613        4.5592477972       -0.1152339788
 C          1.7919134110        3.7237126895       -0.1093530043
 C          3.5852588148        1.5815642304       -0.1062096085
 C          1.3229911603        2.4591537856       -0.4453715056
 C          3.1146900180        3.9438138202        0.2227592475
 C          4.0422186155        2.8842974730        0.2208690090
 C          2.2219670160        1.3538656793       -0.4295855347
 H          3.4500506517        4.9380038035        0.4765870705
 C          4.5047869382        0.5092546484       -0.1157755991
 C          6.3653985775       -1.6503888128       -0.1612921041
 C          4.0767969921       -0.7994789600       -0.4361922148
 C          5.8719315458        0.7286508372        0.1884838678
 C          6.7719818700       -0.3591619342        0.1575166411
 C          5.0176407893       -1.8507720188       -0.4516497223
 H          7.8049960909       -0.1564028872        0.3907022847
 H          4.6604183644       -2.8380647169       -0.7028526319
 C          5.4072441635        3.0820651565        0.5290380507
 H          5.7441050601        4.0775381112        0.7769037903
 C          6.2976015188        2.0358427869        0.5111034725
 H          7.3381659543        2.2058113459        0.7438561227
 C          1.8183420885        0.0316299550       -0.7311505923
 H          0.7834384239       -0.1693778552       -0.9614422320
 C          2.7123155347       -1.0083641692       -0.7334776996
 H          2.3768718607       -2.0069097047       -0.9711441216
 C          7.3219906997       -2.8273412299       -0.2049208843
 C          8.7576108804       -2.4293600311        0.1411255650
 H          9.1492582421       -1.7025500310       -0.5669815004
 H          9.3937041734       -3.3089560805        0.0932798567
 H          8.8262015719       -2.0291026533        1.1502252468
 C          7.3075931905       -3.4189079253       -1.6229875961
 H          7.6090566474       -2.6697333141       -2.3517976850
 H          6.3247276072       -3.7914349399       -1.8985122519
 H          8.0070220623       -4.2481633750       -1.6771624221
 C          6.8509216188       -3.8835749008        0.8067784443
 H          5.8619703893       -4.2644162208        0.5666823500
 H          6.8256385131       -3.4654786032        1.8107842844
 H          7.5417320858       -4.7217475024        0.8037683230
 C         -0.1053859433        2.2902621702       -0.8707569792
 H         -0.1210792472        1.7725595483       -1.8342843351
 H         -0.5417449855        3.2819414541       -1.0348267061
 H          0.3905034019        1.7666868846        1.7281149540
 C         -0.5754815616        1.3906136553        1.4259068377
 C         -3.0900880915        0.4379647096        0.6689606128
 C         -1.3709330142        0.7592756080        2.3570624206
 C         -0.9892863365        1.5663943534        0.1073556805
 C         -2.2738252446        1.0983206334       -0.2881936286
 C         -2.6415092833        0.2624321117        2.0031389093
 C         -4.3661626855       -0.0452312443        0.3025991198
 C         -6.9320254227       -1.0378976748       -0.4489903598
 C         -5.1853077210       -0.7055693663        1.2513876454
 C         -4.8504247180        0.1257604448       -1.0157506540
 C         -6.1247372630       -0.3748876065       -1.3640775712
 C         -6.4486985457       -1.1873117527        0.8514184912
 H         -6.4581019065       -0.2256118602       -2.3785352955
 H         -7.0497267734       -1.6889427418        1.5948005135
 C         -2.7919658388        1.2688717753       -1.5953876528
 H         -2.2077214647        1.7860801102       -2.3401747649
 C         -4.0331983254        0.8018349565       -1.9463389106
 H         -4.3987463395        0.9508714892       -2.9513762465
 C         -3.4761311854       -0.3899167793        2.9373990125
 H         -3.1247007576       -0.5109445153        3.9511210722
 C         -4.7126029792       -0.8630733011        2.5734826552
 H         -5.3387249494       -1.3602516671        3.2991129958
 C         -8.2952466138       -1.5986054918       -0.8064375125
 C         -8.6688561002       -1.3448031906       -2.2677298581
 H         -7.9629090445       -1.8195267702       -2.9457418793
 H         -8.7223023471       -0.2800500583       -2.4836981302
 H         -9.6493826779       -1.7691234615       -2.4653138104
 C         -9.3538126926       -0.9390008560        0.0906409998
 H         -9.3507555758        0.1402085017       -0.0459729416
 H         -9.1872042518       -1.1531320372        1.1426685105
 H        -10.3380558054       -1.3141362776       -0.1746674600
 C         -8.2777933874       -3.1162565139       -0.5636590191
 H         -7.5109497405       -3.5910930810       -1.1720415507
 H         -9.2406646177       -3.5380429025       -0.8370924333
 H         -8.0899360982       -3.3592958854        0.4785262099
 H         -1.0259162174        0.6437374331        3.3733818816
