77
       -105.32636035
 H          0.8620342402        4.1258812225        0.5306681154
 C          1.6252191730        3.3655601710        0.4552214244
 C          3.6148424991        1.4141814900        0.2748473444
 C          1.2872947379        2.0382996192        0.7085983760
 C          2.9109236426        3.7375765027        0.1241539656
 C          3.9385545260        2.7756637616        0.0411440671
 C          2.2853227574        1.0313608806        0.5949319592
 H          3.1443771694        4.7750027498       -0.0613367441
 C          4.6335755147        0.4391168509        0.1927874991
 C          6.6904488792       -1.5305634415        0.0565738775
 C          4.3412227311       -0.9273628924        0.4136309634
 C          5.9664612501        0.8149905630       -0.1061469303
 C          6.9637611695       -0.1800635703       -0.1653476479
 C          5.3780463118       -1.8844084801        0.3401726868
 H          7.9712333270        0.1354879354       -0.3907099574
 H          5.1169557054       -2.9155586890        0.5164877468
 C          5.2712649240        3.1300499015       -0.2639341424
 H          5.5046845750        4.1694405009       -0.4399426157
 C          6.2595918430        2.1784226168       -0.3324286549
 H          7.2748926890        2.4663285871       -0.5606460890
 C          2.0172985914       -0.3454932070        0.7900602164
 H          1.0100693698       -0.6662490256        1.0063990951
 C          3.0078374939       -1.2898892828        0.7017159267
 H          2.7734684460       -2.3321920255        0.8590613677
 C          7.8196647925       -2.5405019092       -0.0181724269
 C          8.8771560582       -2.1722595631        1.0342105337
 H          8.4411876774       -2.1772284748        2.0308971412
 H          9.3088748811       -1.1920231896        0.8524435353
 H          9.6819098158       -2.9014044375        1.0094905543
 C          8.4405400291       -2.4844785399       -1.4226778349
 H          9.2355646060       -3.2208879044       -1.4967051556
 H          8.8673156727       -1.5096158544       -1.6411005580
 H          7.6926899182       -2.7110019158       -2.1796498488
 C          7.3455038113       -3.9701334306        0.2476899719
 H          6.9242227714       -4.0688999628        1.2457243240
 H          8.1935993205       -4.6459715027        0.1811693539
 H          6.6125467245       -4.2887381237       -0.4903634577
 C         -0.1126769662        1.7187726607        1.1417110316
 H         -0.5737224154        2.6391896187        1.5157042401
 H         -0.0792014161        1.0160456532        1.9799096417
 H          0.4405300570        1.3305888608       -1.4857442005
 C         -0.5694698338        1.0391691147       -1.2395517466
 C         -3.1968532016        0.3024460291       -0.6380686521
 C         -1.3906033850        0.5604066516       -2.2411053268
 C         -1.0138741697        1.1646958758        0.0711110797
 C         -2.3525532595        0.7938734591        0.3928627241
 C         -2.7178748264        0.1817040775       -1.9676453787
 C         -4.5302113280       -0.0654888948       -0.3500937819
 C         -7.2223680828       -0.8070378273        0.2303342434
 C         -5.3817789411       -0.5520427386       -1.3737727757
 C         -5.0395545195        0.0504009227        0.9637614614
 C         -6.3749933478       -0.3228236213        1.2251043227
 C         -6.7100997304       -0.9126344294       -1.0580050404
 H         -6.7336250542       -0.2217635282        2.2383369397
 H         -7.3293182931       -1.2794402301       -1.8609270629
 C         -2.8903317906        0.9001911865        1.6976900367
 H         -2.2762471841        1.2743461742        2.5015942702
 C         -4.1858945242        0.5425679454        1.9743928874
 H         -4.5665321714        0.6380933227        2.9803548456
 C         -3.5819815208       -0.3044088760       -2.9751250139
 H         -3.2060143482       -0.3896628264       -3.9837066270
 C         -4.8762455431       -0.6613788104       -2.6878155564
 H         -5.5237649241       -1.0294934600       -3.4694722800
 C         -8.6464566769       -1.1924819080        0.5836958339
 C         -9.3679523927        0.0462275119        1.1369199740
 H        -10.3966097916       -0.2092381160        1.3744481856
 H         -9.3757785019        0.8447411396        0.3982024013
 H         -8.8980600933        0.4197754497        2.0426118373
 C         -8.6077513258       -2.2955066368        1.6529240520
 H         -8.1343459840       -1.9566570249        2.5702955888
 H         -8.0659270687       -3.1643231980        1.2853613880
 H         -9.6214168125       -2.6024054803        1.8939016325
 C         -9.4297123307       -1.7133357359       -0.6224700187
 H        -10.4364227925       -1.9758129396       -0.3090454557
 H         -8.9708316203       -2.6084981356       -1.0365375403
 H         -9.5149189461       -0.9549729479       -1.3975721391
 H         -1.0174186519        0.4788975309       -3.2508259152
