77
       -105.32579528
 H         -0.1828289963        1.6624746860       -0.0423915305
 C          0.8505894447        1.3517762482        0.0039497832
 C          3.5251796280        0.5665170723        0.1478399282
 C          1.1411189429        0.0076342312        0.2234196143
 C          1.8436351713        2.2951110502       -0.1523172191
 C          3.2008420290        1.9257889397       -0.0949890777
 C          2.5008859365       -0.4051470539        0.3186283419
 H          1.5858236041        3.3298698951       -0.3198325407
 C          4.8848921736        0.1888559508        0.2236248176
 C          7.6301139612       -0.5763323305        0.3651782616
 C          5.2451373690       -1.1546966413        0.4777045872
 C          5.9128243435        1.1495173351        0.0495717530
 C          7.2629833001        0.7430189262        0.1235482680
 C          6.6094957569       -1.5082068731        0.5418339113
 H          8.0176281655        1.5005459273       -0.0154713433
 H          6.8496426129       -2.5427418770        0.7355070171
 C          4.2389032182        2.8702416361       -0.2613367011
 H          3.9764165612        3.9015778094       -0.4437172719
 C          5.5574191391        2.4943617691       -0.1935375104
 H          6.3387437495        3.2280106353       -0.3239319784
 C          2.8945591797       -1.7388380194        0.5852326815
 H          2.1467557758       -2.5003584907        0.7421487834
 C          4.2151225223       -2.1014670660        0.6636197123
 H          4.4789520473       -3.1279411181        0.8703674451
 C          9.0767245418       -1.0271711375        0.4385643347
 C          9.3191869536       -2.0719400095       -0.6622022302
 H          8.6937940475       -2.9509710573       -0.5324619928
 H         10.3568192114       -2.3919954988       -0.6362852258
 H          9.1168117668       -1.6464944420       -1.6427809164
 C          9.3320895724       -1.6538565471        1.8180223918
 H          8.7198929579       -2.5358930607        1.9841968177
 H          9.1237811407       -0.9352787662        2.6077391005
 H         10.3739512704       -1.9515190299        1.8937559342
 C         10.0617474698        0.1259563239        0.2396336076
 H          9.9456892518        0.8837146250        1.0113755458
 H          9.9453518990        0.5827722327       -0.7406844385
 H         11.0770405775       -0.2555991031        0.3046308269
 C         -0.0011689030       -0.9537392941        0.3985525254
 H         -0.2621061231       -0.9739698039        1.4592319837
 H          0.3127613795       -1.9659719778        0.1298538092
 H          0.0380005053       -0.7094974838       -2.2095330828
 C         -0.9659843373       -0.5622247543       -1.8391881115
 C         -3.5620590913       -0.2114144279       -0.8800070495
 C         -1.9874644033       -0.3339395703       -2.7309037081
 C         -1.1874910316       -0.6256676343       -0.4614412276
 C         -2.5017388846       -0.4357042778        0.0425513480
 C         -3.3107936928       -0.1597611897       -2.2751266652
 C         -4.8860921580       -0.0422446595       -0.4159437019
 C         -7.5600218739        0.2780795154        0.5273339125
 C         -5.9487020123        0.1692764230       -1.3289238729
 C         -5.1770495667       -0.0863016305        0.9682433141
 C         -6.5086792201        0.0755717797        1.4111626453
 C         -7.2598227936        0.3243508021       -0.8349230841
 H         -6.6883473672        0.0349753443        2.4735162270
 H         -8.0484837107        0.4830635479       -1.5548309385
 C         -2.8247252188       -0.4583018249        1.4223336152
 H         -2.0472874570       -0.6054877057        2.1558301271
 C         -4.1105121611       -0.2925832777        1.8686307727
 H         -4.3192274399       -0.3202021275        2.9277302190
 C         -4.3814999044        0.0573884697       -3.1697432935
 H         -4.1728016846        0.0944916659       -4.2284265738
 C         -5.6661234450        0.2154504356       -2.7123710033
 H         -6.4752793536        0.3757825696       -3.4089551316
 C         -8.9978382677        0.4479065694        0.9787737805
 C         -9.5008694907        1.8239256275        0.5143747882
 H         -9.4856529219        1.9190423132       -0.5677860780
 H         -8.8885522396        2.6166896577        0.9387313344
 H        -10.5245976969        1.9666880918        0.8482041004
 C         -9.1494643784        0.3615592011        2.4981198968
 H        -10.1962421237        0.4868080654        2.7609814424
 H         -8.5887981540        1.1483245023        2.9980911301
 H         -8.8300693694       -0.6082175609        2.8733954840
 C         -9.8487150069       -0.6602789079        0.3386494888
 H         -9.8493828778       -0.5984638063       -0.7460002737
 H        -10.8763681015       -0.5700416109        0.6787168559
 H         -9.4773335758       -1.6410718591        0.6277219938
 H         -1.7868891634       -0.2984751792       -3.7908583960
