77
       -105.32579473
 H          1.1104006051        4.5354429007       -0.5318721059
 C          1.7927192382        3.7026103645       -0.4482256186
 C          3.5813761786        1.5661007116       -0.2452775322
 C          1.3203838955        2.4130529067       -0.6621803606
 C          3.1166460649        3.9500101651       -0.1407563474
 C          4.0418106661        2.8928535127       -0.0436690992
 C          2.2170676586        1.3121080637       -0.5437405444
 H          3.4546844429        4.9629687971        0.0172345995
 C          4.4984355174        0.4954772203       -0.1544773486
 C          6.3537506818       -1.6634341726        0.0033814344
 C          4.0669578613       -0.8366566447       -0.3490054946
 C          5.8665308358        0.7393359031        0.1259763935
 C          6.7639137570       -0.3487830786        0.1975099376
 C          5.0051956056       -1.8870381579       -0.2654727827
 H          7.7977268142       -0.1274059674        0.4092422210
 H          4.6452701700       -2.8928036521       -0.4214995942
 C          5.4077950032        3.1155948236        0.2423892776
 H          5.7473712894        4.1292570382        0.3942410230
 C          6.2957173978        2.0701949903        0.3225505634
 H          7.3370358138        2.2589328912        0.5367313054
 C          1.8101354748       -0.0316961226       -0.7190189125
 H          0.7745446920       -0.2510553217       -0.9284762491
 C          2.7016858120       -1.0694004777       -0.6240749087
 H          2.3636880792       -2.0851089825       -0.7661725226
 C          7.3071807745       -2.8418005764        0.0713244032
 C          8.7442694009       -2.4165203393        0.3763456357
 H          8.8151690703       -1.9219215649        1.3425394765
 H          9.1369037749       -1.7617074004       -0.3983202199
 H          9.3779891439       -3.2984015132        0.4120752131
 C          7.2894227705       -3.5661700185       -1.2836798215
 H          7.9866977936       -4.3986360364       -1.2590808120
 H          7.5918060624       -2.8908901099       -2.0810900842
 H          6.3052792466       -3.9607804423       -1.5212814970
 C          6.8345046633       -3.7951796039        1.1798173983
 H          6.8116099504       -3.2829670083        2.1392880706
 H          7.5230207530       -4.6317559944        1.2562552773
 H          5.8442159401       -4.1944124166        0.9781849524
 C         -0.1092814083        2.2074649756       -1.0664716305
 H         -0.1275416577        1.6034052172       -1.9782938055
 H         -0.5457799260        3.1801350526       -1.3195267890
 H          0.3892064469        1.9294426053        1.5698569262
 C         -0.5756208265        1.5244686086        1.3033818602
 C         -3.0879443041        0.4972198097        0.6424634277
 C         -1.3697630512        0.9784755789        2.2910453167
 C         -0.9898534075        1.5761622895       -0.0231985204
 C         -2.2754827814        1.0694002610       -0.3729084141
 C         -2.6369818302        0.4471569093        1.9863011598
 C         -4.3628354116       -0.0222013127        0.3243917954
 C         -6.9271345660       -1.0909246007       -0.3215069109
 C         -5.1801995656       -0.5959396030        1.3305916682
 C         -4.8474868093        0.0258333296       -1.0030530683
 C         -6.1194006584       -0.5095981951       -1.2968685122
 C         -6.4448155400       -1.1189544332        0.9824195997
 H         -6.4597902486       -0.4579232933       -2.3200568721
 H         -7.0384297342       -1.5503135650        1.7724933442
 C         -2.7944174594        1.1183828198       -1.6889494418
 H         -2.2129197695        1.5675272097       -2.4786340840
 C         -4.0344863116        0.6166846745       -1.9940975851
 H         -4.4017172604        0.6717371374       -3.0080301517
 C         -3.4697606110       -0.1200261903        2.9774080468
 H         -3.1172557192       -0.1460962113        3.9976584984
 C         -4.7047645172       -0.6290065322        2.6598935846
 H         -5.3282925104       -1.0595865457        3.4290265349
 C         -8.2770185432       -1.6625183148       -0.7119071063
 C         -8.0566683247       -2.7682249985       -1.7563785247
 H         -7.5939258124       -2.3855750751       -2.6619548735
 H         -9.0128446589       -3.2056888802       -2.0285804534
 H         -7.4237518701       -3.5549675435       -1.3513184472
 C         -9.1349318626       -0.5389897310       -1.3135640096
 H         -8.6896834927       -0.1247438011       -2.2139447413
 H         -9.2691770877        0.2655467426       -0.5938262008
 H        -10.1139553089       -0.9305021384       -1.5744113413
 C         -9.0266857642       -2.2626661804        0.4786695931
 H         -9.2352521854       -1.5101951732        1.2359021552
 H         -8.4703287776       -3.0844833724        0.9241759466
 H         -9.9798205943       -2.6583270480        0.1387102523
 H         -1.0226902990        0.9589711787        3.3130711715
