77
       -105.32571448
 H         -0.0885284833        1.9331895387        0.3523196711
 C          0.9288164957        1.5775860753        0.2789824036
 C          3.5590835992        0.6721356011        0.0626174920
 C          1.1679997796        0.3541448635       -0.3502145885
 C          1.9489616790        2.3418101595        0.7955513816
 C          3.2876632137        1.9086331860        0.7025718879
 C          2.5026990093       -0.1181713024       -0.4707544246
 H          1.7334044633        3.2863039533        1.2714857577
 C          4.8990361186        0.2359970342       -0.0442916658
 C          7.6022074977       -0.6509305469       -0.2647614832
 C          5.2110650136       -0.9879727478       -0.6821083943
 C          5.9564590498        1.0189502275        0.4813841009
 C          7.2822621810        0.5558893026        0.3589214983
 C          6.5568236968       -1.4062632401       -0.7787996269
 H          8.0662729000        1.1737934890        0.7700087557
 H          6.7521228208       -2.3449207672       -1.2720433074
 C          4.3544107022        2.6758931772        1.2198458719
 H          4.1305692481        3.6152100148        1.7028756940
 C          5.6535268391        2.2455283701        1.1136393058
 H          6.4587509706        2.8440357518        1.5124863781
 C          2.8493362727       -1.3385064101       -1.1023635397
 H          2.0791060572       -1.9670023054       -1.5215024338
 C          4.1508801952       -1.7568766270       -1.2067521604
 H          4.3768334773       -2.6914256617       -1.6982272634
 C          9.0535312567       -1.0820001403       -0.3529432719
 C          9.6135549992       -1.2139540074        1.0722863569
 H          9.0440417645       -1.9472968544        1.6392157833
 H          9.5884676057       -0.2693435632        1.6084646843
 H         10.6470612276       -1.5449747763        1.0262035286
 C          9.8410315560       -0.0116708715       -1.1247210340
 H          9.8218401790        0.9507740516       -0.6210537228
 H          9.4325923722        0.1147511291       -2.1250498525
 H         10.8784565931       -0.3204837064       -1.2155904491
 C          9.2247303546       -2.4226041330       -1.0688048334
 H          8.7089690033       -3.2222544018       -0.5416424956
 H         10.2801585930       -2.6786128223       -1.1016472632
 H          8.8667463459       -2.3723516786       -2.0947743240
 C         -0.0179371893       -0.3688823713       -0.9218029398
 H          0.2393886877       -1.3921516760       -1.2058441239
 H         -0.3005136222        0.1534697356       -1.8391428259
 H          0.1285823991       -0.9996080220        1.6344062794
 C         -0.8971312391       -0.8148271570        1.3505128356
 C         -3.5515314517       -0.3676433420        0.6155308997
 C         -1.8924775356       -0.9546326178        2.2926726041
 C         -1.1739876645       -0.4494828197        0.0342509260
 C         -2.5236585872       -0.2245140104       -0.3578913947
 C         -3.2401335575       -0.7315707220        1.9505702759
 C         -4.9029997712       -0.1542385530        0.2612727794
 C         -7.6315484145        0.2765720563       -0.4554268133
 C         -5.9343142760       -0.2968245921        1.2234658715
 C         -5.2523810184        0.2013838405       -1.0620225891
 C         -6.6082664040        0.4100383097       -1.3912619619
 C         -7.2758242422       -0.0770246779        0.8417192836
 H         -6.8394309688        0.6817223983       -2.4101586876
 H         -8.0331205333       -0.1937704971        1.6003735493
 C         -2.9078649049        0.1298798094       -1.6740123262
 H         -2.1599684405        0.2423441603       -2.4433132613
 C         -4.2203875237        0.3336208402       -2.0154725245
 H         -4.4763736026        0.6000292379       -3.0301042464
 C         -4.2812544624       -0.8699449516        2.8959140367
 H         -4.0280682814       -1.1485409914        3.9078944129
 C         -5.5913497150       -0.6587333247        2.5445332117
 H         -6.3753535034       -0.7699673758        3.2784661586
 C         -9.0683497126        0.5190204865       -0.8773931869
 C         -9.1929981769        1.9644125378       -1.3844896073
 H         -8.5648334877        2.1460361525       -2.2522566036
 H         -8.9137091918        2.6679562136       -0.6031217337
 H        -10.2225257291        2.1613539405       -1.6692186933
 C        -10.0590405565        0.3196676632        0.2707716248
 H         -9.8692405830        1.0165649710        1.0841313881
 H        -10.0275294299       -0.6997567031        0.6489263982
 H        -11.0670313759        0.5043383678       -0.0904247731
 C         -9.4248457219       -0.4621213474       -2.0049143569
 H         -8.8055679206       -0.3128647373       -2.8850583171
 H        -10.4610445465       -0.3180563334       -2.2970202768
 H         -9.3043342894       -1.4895759531       -1.6684533916
 H         -1.6461087536       -1.2434373804        3.3031499729
