77
       -105.32567615
 H          0.0969152673        1.6672040561       -1.6871539385
 C          1.0804409263        1.3462282902       -1.3765647110
 C          3.6260976504        0.5004754841       -0.6101724751
 C          1.2088008157        0.1252346998       -0.7149618763
 C          2.1688508765        2.1423339725       -1.6558500497
 C          3.4662705001        1.7370312107       -1.2862414592
 C          2.4991136148       -0.3138271539       -0.3063428648
 H          2.0372193302        3.0793595484       -2.1752310403
 C          4.9263952883        0.0814494359       -0.2478640538
 C          7.5545976814       -0.7826588179        0.4529663399
 C          5.1254114123       -1.1461354436        0.4253901230
 C          6.0564302473        0.8787622766       -0.5590380969
 C          7.3452970911        0.4271806324       -0.2005159672
 C          6.4344146420       -1.5505658099        0.7624256196
 H          8.1810122458        1.0594821998       -0.4543854906
 H          6.5499807249       -2.4929354094        1.2762522102
 C          4.6029915235        2.5234352512       -1.5789401454
 H          4.4640906294        3.4639619307       -2.0907320170
 C          5.8632864001        2.1068435410       -1.2284867700
 H          6.7224238994        2.7164375886       -1.4650371386
 C          2.7316734990       -1.5269356659        0.3865832746
 H          1.9029147336       -2.1626255101        0.6566824223
 C          3.9944906729       -1.9305047723        0.7373320324
 H          4.1339593146       -2.8649299029        1.2602200487
 C          8.9351955103       -1.2844120227        0.8318925205
 C          8.9936708599       -1.4663573418        2.3565970226
 H          8.2800917458       -2.2078425417        2.7051169878
 H          8.7875712848       -0.5248704489        2.8611621108
 H          9.9873818044       -1.7973278726        2.6443760122
 C         10.0457546767       -0.3188911669        0.4146750511
 H         11.0073122884       -0.7318826740        0.7070232823
 H          9.9392207391        0.6451032691        0.9071982100
 H         10.0637100511       -0.1777193279       -0.6637477718
 C          9.1751953955       -2.6331951283        0.1357563467
 H          8.4577532713       -3.3861850321        0.4502173641
 H         10.1696189067       -2.9957809935        0.3796311979
 H          9.1073025067       -2.5220611611       -0.9442899872
 C         -0.0389946023       -0.6910395657       -0.5406183799
 H          0.1506032467       -1.6031755366        0.0301899281
 H         -0.3487502716       -1.0043057839       -1.5420504836
 H          0.1803884864        1.1907846485        1.3404132491
 C         -0.8556548509        0.9979716496        1.1040369264
 C         -3.5392789140        0.4857044908        0.5300135628
 C         -1.8382531499        1.6993610340        1.7701975290
 C         -1.1610757715        0.0455735169        0.1354926103
 C         -2.5263704261       -0.2424306937       -0.1521452300
 C         -3.1991941941        1.4708054986        1.4921560956
 C         -4.9031058941        0.2304798244        0.2617555407
 C         -7.6563994887       -0.2866015639       -0.2792797686
 C         -5.9198912345        0.9554720227        0.9327859683
 C         -5.2785354425       -0.7572980354       -0.6777369820
 C         -6.6466094762       -0.9945921456       -0.9274553438
 C         -7.2744227718        0.6808322959        0.6438663520
 H         -6.8983643250       -1.7565119948       -1.6496370057
 H         -8.0204553391        1.2535377609        1.1712403707
 C         -2.9351600960       -1.2308105696       -1.0798535437
 H         -2.1962888950       -1.8175770993       -1.6027605941
 C         -4.2597276846       -1.4817551198       -1.3326663503
 H         -4.5354571998       -2.2454825672       -2.0444711281
 C         -4.2263329916        2.1827446637        2.1520297349
 H         -3.9523466973        2.9302579597        2.8814078515
 C         -5.5488585743        1.9356325429        1.8792804289
 H         -6.3216033215        2.4889254300        2.3915995817
 C         -9.1077366617       -0.5942469744       -0.5960011296
 C         -9.3837445419       -2.0662539828       -0.2512943259
 H         -9.1875948594       -2.2542956365        0.8020927901
 H         -8.7724141306       -2.7431678892       -0.8417581993
 H        -10.4263912770       -2.2962208645       -0.4507993738
 C         -9.3479973833       -0.3556712901       -2.0948158598
 H         -8.7386433364       -1.0084335499       -2.7137395820
 H         -9.1243585409        0.6761003133       -2.3572746891
 H        -10.3905090996       -0.5494829743       -2.3302518743
 C        -10.0799669708        0.2807778436        0.1968017277
 H        -11.0991895513        0.0182347241       -0.0731623664
 H         -9.9409344080        1.3351280158       -0.0319961308
 H         -9.9732514520        0.1226802943        1.2676815221
 H         -1.5688337455        2.4319752269        2.5158177314
