77
       -105.32562222
 H         -0.1335748438        1.8957687164        0.0982678378
 C          0.8884521539        1.5462003952        0.1102280971
 C          3.5298000612        0.6495936493        0.1666371653
 C          1.1431704468        0.2323768930        0.5089389235
 C          1.8990139241        2.4049423272       -0.2540725227
 C          3.2432350720        1.9794233022       -0.2352679355
 C          2.4831632444       -0.2384427321        0.5425280237
 H          1.6716675139        3.4173421432       -0.5514102787
 C          4.8749566337        0.2172701888        0.1938012931
 C          7.5883711509       -0.6641524811        0.2469412971
 C          5.2017751948       -1.1006093971        0.5922430664
 C          5.9228305402        1.0972107613       -0.1739092360
 C          7.2541169701        0.6351900422       -0.1373959321
 C          6.5523189787       -1.5143250597        0.6095244354
 H          8.0307520852        1.3289790656       -0.4219207344
 H          6.7589431571       -2.5266171676        0.9178752129
 C          4.3006440584        2.8425448712       -0.5973930394
 H          4.0652432174        3.8521674833       -0.8990403311
 C          5.6050845281        2.4163534005       -0.5674917110
 H          6.4030992770        3.0885661600       -0.8449386945
 C          2.8445627982       -1.5509660763        0.9362255272
 H          2.0818204696       -2.2556596962        1.2288607740
 C          4.1510004506       -1.9663776542        0.9622435621
 H          4.3882110989       -2.9737502586        1.2703428493
 C          9.0445261214       -1.0878908556        0.2521559868
 C          9.6075156410       -0.9295556131       -1.1691978307
 H          9.5778486865        0.1028540672       -1.5062887252
 H          9.0434575882       -1.5382588638       -1.8726827151
 H         10.6429721616       -1.2571623165       -1.1873360231
 C          9.2307728416       -2.5414699410        0.6895761667
 H          8.7210311018       -3.2263684269        0.0154152623
 H          8.8754038327       -2.6983054646        1.7056202313
 H         10.2886907254       -2.7884213017        0.6702744113
 C          9.8185890696       -0.1818575350        1.2224855535
 H          9.7871850759        0.8608203790        0.9188184049
 H         10.8597363903       -0.4899835155        1.2531759486
 H          9.4084005734       -0.2606878921        2.2269553475
 C         -0.0374520923       -0.5946849772        0.9324161690
 H         -0.3517875942       -0.2312410561        1.9134895900
 H          0.2350224231       -1.6454149536        1.0545253049
 H          0.1861793594       -0.8977899392       -1.6712647411
 C         -0.8463339833       -0.7308085515       -1.4012243313
 C         -3.5173442222       -0.3234389947       -0.7052214036
 C         -1.8085510341       -0.7266806869       -2.3869330566
 C         -1.1652739410       -0.5343758554       -0.0586011848
 C         -2.5239292060       -0.3326184016        0.3136036197
 C         -3.1635516766       -0.5188122274       -2.0647771195
 C         -4.8764652774       -0.1233495595       -0.3731804581
 C         -7.6198943799        0.2870304408        0.2974367504
 C         -5.8731761879       -0.1117944809       -1.3812336868
 C         -5.2682812843        0.0658709199        0.9723649053
 C         -6.6309004402        0.2664512224        1.2783858327
 C         -7.2227505411        0.0949136205       -1.0214724388
 H         -6.8951896611        0.4070066892        2.3156106596
 H         -7.9526415436        0.0995057539       -1.8151347093
 C         -2.9503820789       -0.1442535081        1.6508199352
 H         -2.2297730346       -0.1521386051        2.4536716263
 C         -4.2705773110        0.0454022179        1.9703204264
 H         -4.5592439697        0.1827894176        3.0017279940
 C         -4.1709973545       -0.5078420520       -3.0555452004
 H         -3.8857325612       -0.6605709654       -4.0856442791
 C         -5.4885069985       -0.3090968590       -2.7254352943
 H         -6.2464242690       -0.3037062226       -3.4943361764
 C         -9.0660412019        0.5131152977        0.6959233853
 C        -10.0135045477        0.5079860770       -0.5048783008
 H        -11.0298292165        0.6762742098       -0.1593570787
 H         -9.9964480293       -0.4501497357       -1.0195145952
 H         -9.7693790573        1.3031607623       -1.2059145116
 C         -9.1758290280        1.8757256177        1.3978535684
 H        -10.2111447177        2.0617127118        1.6686414863
 H         -8.8471280744        2.6735049960        0.7352521680
 H         -8.5803221998        1.9146047849        2.3058258834
 C         -9.4925673117       -0.6058887366        1.6588381707
 H        -10.5358264069       -0.4728545118        1.9302935892
 H         -8.9054997189       -0.6009268056        2.5730700326
 H         -9.3841912535       -1.5788403298        1.1844732319
 H         -1.5304737832       -0.8877893328       -3.4174002983
