77
       -105.32555129
 H         -0.1811974755        2.1213046560       -1.7053971904
 C          0.7274040944        1.6462904109       -1.3665254379
 C          3.0945329843        0.4376015820       -0.5080402992
 C          1.0574333620        1.7048387507       -0.0136671208
 C          1.5341501785        1.0085631371       -2.2827256671
 C          2.7302989846        0.3821365876       -1.8778484544
 C          2.2696679163        1.1092448472        0.4342891995
 H          1.2561716037        0.9864867452       -3.3255537783
 C          4.2957196804       -0.1777752881       -0.0901514279
 C          6.7020622963       -1.4470831058        0.7659048692
 C          4.6975043991       -0.1281443226        1.2655948051
 C          5.1214456494       -0.8522748185       -1.0231539732
 C          6.3046087600       -1.4720480257       -0.5714817739
 C          5.8936598181       -0.7645797731        1.6654298995
 H          6.9120133774       -1.9816791552       -1.3041598877
 H          6.1649088678       -0.7054719266        2.7072843650
 C          3.5728879465       -0.2832597056       -2.7954547463
 H          3.2873665737       -0.3102188216       -3.8363803502
 C          4.7348795266       -0.8863280024       -2.3816713929
 H          5.3676860077       -1.3926467342       -3.0950701272
 C          2.7092091932        1.1608540581        1.7799607130
 H          2.1225155287        1.6876835261        2.5160967110
 C          3.8787169491        0.5665753543        2.1809168510
 H          4.1849826714        0.6270123791        3.2145894286
 C          7.9771140267       -2.1575826026        1.1777986282
 C          7.8364061274       -3.6491212558        0.8337476467
 H          7.7052527095       -3.8098541499       -0.2327882434
 H          6.9851816267       -4.0821457639        1.3549118645
 H          8.7325420476       -4.1786687607        1.1440509238
 C          8.2622428405       -2.0295985070        2.6749923069
 H          8.3989391868       -0.9901116793        2.9647457385
 H          9.1810508840       -2.5593361817        2.9109601368
 H          7.4659604495       -2.4722524498        3.2695307247
 C          9.1566212672       -1.5523702198        0.4015095026
 H          9.0497689313       -1.6857013906       -0.6714198734
 H         10.0789244191       -2.0373663287        0.7080697806
 H          9.2441534155       -0.4881896626        0.6093653312
 C          0.1580737942        2.4413016639        0.9399518117
 H          0.6059835792        3.4250952587        1.1201121625
 H          0.1292498868        1.9234670565        1.9026753455
 H         -1.0362173398        4.7469951106        0.2526048645
 C         -1.7147233294        3.9102663003        0.1771677426
 C         -3.4945425596        1.7641919077       -0.0062105857
 C         -3.0242871071        4.1417328892       -0.1972386088
 C         -1.2527787103        2.6319610311        0.4672962367
 C         -2.1446882423        1.5258483587        0.3620694733
 C         -3.9448421956        3.0798779899       -0.2876319936
 C         -4.4075974792        0.6893560110       -0.0868291321
 C         -6.2559694099       -1.4768117092       -0.2237411896
 C         -5.7620458765        0.9182103054       -0.4374582407
 C         -3.9861298293       -0.6316326848        0.1885539419
 C         -4.9206098011       -1.6858995401        0.1135655980
 C         -6.6563017622       -0.1731794346       -0.4969588098
 H         -4.5686438310       -2.6827813396        0.3321622317
 H         -7.6798058526        0.0366790174       -0.7634373548
 C         -1.7473390800        0.1925575574        0.6195242068
 H         -0.7224749536       -0.0148158143        0.8865249376
 C         -2.6346368228       -0.8494956543        0.5347430185
 H         -2.3044784941       -1.8568766326        0.7403750730
 C         -5.2968914931        3.2873532796       -0.6428887268
 H         -5.6290432465        4.2925265517       -0.8554618147
 C         -6.1811344991        2.2380950418       -0.7138416088
 H         -7.2119527642        2.4154842566       -0.9817834892
 C         -7.2063293155       -2.6584593973       -0.2773039868
 C         -6.6872848730       -3.6616895096       -1.3190384635
 H         -5.7064294091       -4.0491733161       -1.0572761203
 H         -6.6237606423       -3.1948302457       -2.2995789729
 H         -7.3720341937       -4.5022199837       -1.3853125347
 C         -8.6288647110       -2.2498699223       -0.6627226200
 H         -8.6582894884       -1.8011220803       -1.6531349350
 H         -9.0536309693       -1.5600676527        0.0630674563
 H         -9.2610301725       -3.1333312678       -0.6840387676
 C         -7.2467696186       -3.3189734660        1.1094749483
 H         -7.9432119738       -4.1523603897        1.0941104936
 H         -7.5820345382       -2.6076398682        1.8610621638
 H         -6.2740040623       -3.7011871112        1.4067217361
 H         -3.3547254364        5.1461901253       -0.4145130330
