77
       -105.32551132
 H         -0.1824137947        2.5050490578       -1.1209906750
 C          0.7233708105        1.9957064554       -0.8274507560
 C          3.0829957632        0.7033159028       -0.0772861206
 C          1.0867095915        0.8252936782       -1.4914429743
 C          1.4938112638        2.5244500686        0.1843087980
 C          2.6851233969        1.8897699747        0.5906523155
 C          2.2959516645        0.1669590665       -1.1320375284
 H          1.1907401101        3.4370195405        0.6748272630
 C          4.2798248095        0.0622248021        0.3135960524
 C          6.6766432135       -1.2561249355        1.1208936773
 C          4.7148195498       -1.1140457934       -0.3414755115
 C          5.0679045957        0.5889986192        1.3665517712
 C          6.2473188736       -0.0844087787        1.7453586119
 C          5.9054293824       -1.7491605636        0.0765757729
 H          6.8257953207        0.3382371243        2.5529579841
 H          6.2025718768       -2.6439444780       -0.4464888023
 C          3.4906980089        2.4073411534        1.6288474102
 H          3.1799735646        3.3158975994        2.1225587988
 C          4.6485380028        1.7751485005        2.0094602811
 H          5.2528027651        2.1823349894        2.8062043403
 C          2.7687885761       -0.9987719738       -1.7833575745
 H          2.2120334733       -1.4159333454       -2.6077767816
 C          3.9339733141       -1.6154966551       -1.4043389710
 H          4.2662068240       -2.5017481498       -1.9240565279
 C          7.9448099355       -1.9351032923        1.6015050917
 C          9.1192180647       -0.9556651461        1.4542922219
 H         10.0374893962       -1.4408515174        1.7724296823
 H          8.9848944398       -0.0642794066        2.0607300664
 H          9.2346309914       -0.6518578844        0.4161585386
 C          8.2664147543       -3.2040210034        0.8104953240
 H          8.4332845568       -2.9834704394       -0.2414896787
 H          7.4737791072       -3.9428847946        0.9069695631
 H          9.1779753706       -3.6478969761        1.2010590136
 C          7.7641399722       -2.3146782424        3.0800434058
 H          7.6059293698       -1.4419878859        3.7076583280
 H          8.6552398645       -2.8244742868        3.4347515049
 H          6.9155174317       -2.9847077400        3.2008994204
 C          0.2257447985        0.3089670992       -2.6106730972
 H          0.2153961625       -0.7844290153       -2.6019724281
 H          0.6931785198        0.6162007424       -3.5530355916
 H         -0.9560696900        1.9639430844       -4.3661264452
 C         -1.6471568580        1.6321593069       -3.6055384962
 C         -3.4589160672        0.7717748002       -1.6601565278
 C         -2.9628412651        2.0489956821       -3.6683928344
 C         -1.1945567665        0.7915118983       -2.5955491036
 C         -2.1033289599        0.3574795537       -1.5876835221
 C         -3.8990858585        1.6226362369       -2.7067182228
 C         -4.3876079985        0.3306946572       -0.6914347918
 C         -6.2665694283       -0.5800320802        1.2495861029
 C         -5.7473260864        0.7254632666       -0.7633361100
 C         -3.9765741499       -0.5181875145        0.3616150780
 C         -4.9262021032       -0.9548952084        1.3091512377
 C         -6.6567343129        0.2589672066        0.2112053340
 H         -4.5819278844       -1.6049087348        2.0993374338
 H         -7.6837247168        0.5759488654        0.1250426850
 C         -1.7170949234       -0.4818607104       -0.5161703510
 H         -0.6886528295       -0.7979376205       -0.4322280402
 C         -2.6198019301       -0.9040403151        0.4257439335
 H         -2.2978136100       -1.5476570815        1.2308458092
 C         -5.2568864627        2.0113002505       -2.7577221294
 H         -5.5813008647        2.6592704027       -3.5582070259
 C         -6.1561076285        1.5743588071       -1.8151899323
 H         -7.1909385538        1.8771896211       -1.8723191407
 C         -7.2330141414       -1.0943750498        2.3001836141
 C         -8.6584823461       -0.5832327506        2.0860471209
 H         -9.0583500573       -0.9125411815        1.1296630908
 H         -8.7041292028        0.5018699777        2.1463842105
 H         -9.3020797116       -0.9824378589        2.8651558536
 C         -6.7506944262       -0.6304496779        3.6833641498
 H         -7.4481054157       -0.9708249539        4.4433173260
 H         -6.7024035850        0.4555092518        3.7260071827
 H         -5.7697202092       -1.0292134201        3.9271100655
 C         -7.2505576942       -2.6297104742        2.2407366302
 H         -7.5602830563       -2.9696727473        1.2549504873
 H         -7.9572439110       -3.0129274107        2.9711760884
 H         -6.2760593917       -3.0566041466        2.4617571260
 H         -3.2856807385        2.7007405858       -4.4661026842
