77
       -105.32540213
 H         -0.1832409873        2.4361100136       -1.2852950160
 C          0.7244458477        1.9047914105       -1.0406354955
 C          3.0894794892        0.5515389299       -0.4271538278
 C          1.0513974726        1.7043470147        0.2968963697
 C          1.5336816208        1.4520465770       -2.0618316166
 C          2.7266021744        0.7587017303       -1.7825856216
 C          2.2649594442        1.0330722532        0.6253645598
 H          1.2565516972        1.6301720728       -3.0898396467
 C          4.2892076432       -0.1346039891       -0.1333424573
 C          6.6921258033       -1.5521222702        0.4601603058
 C          4.6879464097       -0.3433797657        1.2071306304
 C          5.1161348398       -0.6223525604       -1.1763926508
 C          6.2993416374       -1.3223035273       -0.8538895736
 C          5.8811853630       -1.0472010605        1.4744979675
 H          6.9019611902       -1.6824515841       -1.6723104169
 H          6.1565818306       -1.1904313202        2.5084629937
 C          3.5707538996        0.2777613174       -2.8088669859
 H          3.2872322165        0.4502125177       -3.8363482887
 C          4.7307618127       -0.3958026801       -2.5158932761
 H          5.3635243176       -0.7585546104       -3.3119834299
 C          2.7024824842        0.8294179150        1.9562038892
 H          2.1164491793        1.2092175053        2.7783360806
 C          3.8706274190        0.1674262451        2.2382530660
 H          4.1762248593        0.0306957308        3.2648255948
 C          7.9482689650       -2.3224137653        0.8206149780
 C          8.8713165257       -1.4103998815        1.6429014248
 H          9.1350481035       -0.5216604641        1.0737990571
 H          9.7856971935       -1.9440662110        1.8856201675
 H          8.4091503630       -1.0977066137        2.5751763234
 C          8.7140648498       -2.8060996032       -0.4119606203
 H          9.0495854617       -1.9711870862       -1.0230444215
 H          8.1096172543       -3.4802117504       -1.0150055752
 H          9.5964624459       -3.3539079011       -0.0927988000
 C          7.5456402743       -3.5483228354        1.6557410135
 H          8.4316250381       -4.1262985648        1.9020925669
 H          6.8666076347       -4.1862897966        1.0939569174
 H          7.0616075015       -3.2647756087        2.5863227710
 C          0.1499594234        2.2439254789        1.3726612146
 H          0.5905086458        3.1807403468        1.7319693312
 H          0.1271331208        1.5559446026        2.2222878315
 H         -1.0691084848        4.6261185848        1.1346177690
 C         -1.7389834065        3.8118544212        0.9013628205
 C         -3.4965564694        1.7210029450        0.3126062270
 C         -3.0512209155        4.0964331570        0.5761107556
 C         -1.2635220602        2.5066128484        0.9444570801
 C         -2.1441212444        1.4312071189        0.6311147034
 C         -3.9606800353        3.0614584046        0.2847313218
 C         -4.3983795263        0.6715072928        0.0284593260
 C         -6.2237131462       -1.4484825168       -0.5205076679
 C         -5.7551949717        0.9486112738       -0.2750850572
 C         -3.9631254713       -0.6733088142        0.0497284825
 C         -4.8863682002       -1.7038751974       -0.2256695928
 C         -6.6378310114       -0.1209257504       -0.5423687150
 H         -4.5239348566       -2.7204215313       -0.1989629195
 H         -7.6634624417        0.1249961218       -0.7664545809
 C         -1.7331026689        0.0773761593        0.6331641001
 H         -0.7062098425       -0.1663151124        0.8583935678
 C         -2.6095331701       -0.9388899463        0.3514983682
 H         -2.2690206218       -1.9635868161        0.3640126252
 C         -5.3149560243        3.3184543029       -0.0269651224
 H         -5.6577403774        4.3421905027       -0.0457039173
 C         -6.1881594149        2.2925476839       -0.2970613385
 H         -7.2208397375        2.5068349422       -0.5283587581
 C         -7.1611987556       -2.6083775710       -0.7999311116
 C         -8.5879025494       -2.1490367529       -1.1041995240
 H         -9.2104537321       -3.0189584650       -1.2946166996
 H         -8.6217436761       -1.5205490082       -1.9913375855
 H         -9.0204122768       -1.6142808475       -0.2615890641
 C         -7.1950522816       -3.5209624755        0.4358171719
 H         -7.5382248601       -2.9691084037        1.3081514287
 H         -6.2183546316       -3.9425354234        0.6573064659
 H         -7.8824882871       -4.3434709111        0.2605601407
 C         -6.6307762661       -3.3896414447       -2.0121161934
 H         -6.5719111331       -2.7441893210       -2.8858329824
 H         -7.3062635223       -4.2094773192       -2.2387230386
 H         -5.6458474828       -3.8093496306       -1.8263348607
 H         -3.3922890575        5.1203797384        0.5526902842
