77
       -105.32532224
 H         -0.1537921418        2.6104411428       -1.1476893680
 C          0.7392106115        2.0814947394       -0.8495878102
 C          3.0651279009        0.7362641508       -0.0878209969
 C          1.0921246079        0.9157640598       -1.5279474616
 C          1.5038487417        2.5806035179        0.1811173875
 C          2.6779092071        1.9183455819        0.5940076885
 C          2.2851265984        0.2313559611       -1.1633621221
 H          1.2097216650        3.4904195347        0.6820648833
 C          4.2443779906        0.0676550035        0.3104230115
 C          6.6033124928       -1.3080064006        1.1337712121
 C          4.6691051385       -1.1050119014       -0.3577534478
 C          5.0249166543        0.5625187901        1.3842833127
 C          6.1854244525       -0.1387973327        1.7706442557
 C          5.8408967378       -1.7689008160        0.0685757328
 H          6.7582365299        0.2596993377        2.5943942083
 H          6.1304188627       -2.6599777959       -0.4649774434
 C          3.4766209729        2.4046252739        1.6523741553
 H          3.1745886804        3.3106420715        2.1560413460
 C          4.6169885571        1.7455812482        2.0401052683
 H          5.2160649806        2.1288885652        2.8524561076
 C          2.7489232389       -0.9305857310       -1.8279472619
 H          2.1991985433       -1.3235728596       -2.6688280185
 C          3.8972039451       -1.5738853858       -1.4417870989
 H          4.2226764119       -2.4563534067       -1.9721072601
 C          7.8499550580       -2.0190345493        1.6241895272
 C          9.0449786484       -1.0598497608        1.5147354390
 H          8.9169511444       -0.1768608680        2.1346615109
 H          9.1842308278       -0.7401021897        0.4843473296
 H          9.9482342390       -1.5680623718        1.8398280261
 C          8.1615923172       -3.2800984427        0.8167983929
 H          8.3508710104       -3.0447507929       -0.2281591217
 H          7.3537630454       -4.0053742993        0.8867513162
 H          9.0577636283       -3.7477806561        1.2151089799
 C          7.6358525230       -2.4204789933        3.0924927890
 H          7.4824276238       -1.5558495515        3.7323395561
 H          8.5109487355       -2.9528095909        3.4538696372
 H          6.7730474628       -3.0765451474        3.1866444588
 C          0.2345838057        0.4375845754       -2.6662957850
 H          0.2369507767       -0.6548884681       -2.7082003403
 H          0.6933633570        0.7938792224       -3.5955478641
 H         -0.9941331413        2.1194853492       -4.3655435479
 C         -1.6700698398        1.7585962410       -3.6045891003
 C         -3.4430732210        0.8229842555       -1.6580502724
 C         -2.9923983784        2.1573012235       -3.6397257010
 C         -1.1919799668        0.8998747736       -2.6219424607
 C         -2.0808936744        0.4268698717       -1.6139507283
 C         -3.9094061177        1.6934355079       -2.6768098713
 C         -4.3522300910        0.3437081021       -0.6889482069
 C         -6.1915967990       -0.6438890888        1.2523812069
 C         -5.7183692014        0.7200049486       -0.7330030949
 C         -3.9149734955       -0.5256662278        0.3364235417
 C         -4.8452450603       -0.9999496717        1.2850412831
 C         -6.6078155742        0.2152550818        0.2408903722
 H         -4.4808889814       -1.6642365358        2.0540663808
 H         -7.6404231642        0.5188044006        0.1761408639
 C         -1.6686460241       -0.4348685514       -0.5703412334
 H         -0.6350266784       -0.7391483752       -0.5091038053
 C         -2.5522978286       -0.8939545624        0.3722705618
 H         -2.2105510283       -1.5538494122        1.1557626373
 C         -5.2732094221        2.0631744557       -2.7001287060
 H         -5.6177171645        2.7263194875       -3.4795138285
 C         -6.1533509624        1.5891941416       -1.7574216279
 H         -7.1931288471        1.8780122521       -1.7934010696
 C         -7.1360105318       -1.1985712782        2.3024996616
 C         -8.5727957822       -0.7086164583        2.1164257708
 H         -8.9775842431       -1.0227189784        1.1569954253
 H         -8.6373528954        0.3737409539        2.2028869202
 H         -9.2000535966       -1.1376282112        2.8930133055
 C         -6.6447941146       -0.7558544520        3.6895308686
 H         -6.6167373379        0.3296362264        3.7556626534
 H         -5.6531837003       -1.1406822133        3.9117824138
 H         -7.3256129283       -1.1263508808        4.4504386086
 C         -7.1273338473       -2.7323197264        2.2100854019
 H         -7.4415676510       -3.0565483085        1.2204373048
 H         -7.8194256335       -3.1435299356        2.9392745947
 H         -6.1433489344       -3.1467246524        2.4119630438
 H         -3.3352948778        2.8239488704       -4.4164835542
