77
       -105.32520077
 H          1.2997071937        4.8204748633        0.1200987352
 C          1.9157597068        3.9335327414        0.1190600925
 C          3.5347391514        1.6560156149        0.1290435981
 C          1.3399632955        2.7050197896        0.4203264681
 C          3.2606146393        4.0525864371       -0.1741334438
 C          4.1011729013        2.9226518461       -0.1672911655
 C          2.1499926670        1.5329717904        0.4148470457
 H          3.6801247300        5.0206085807       -0.4028281243
 C          4.3662651044        0.5142305385        0.1470947083
 C          6.0482634401       -1.7867570289        0.2080808871
 C          3.8286583053       -0.7597095091        0.4410378964
 C          5.7536897441        0.6279273022       -0.1212875000
 C          6.5637006795       -0.5282880696       -0.0836218253
 C          4.6824344633       -1.8825033517        0.4645769591
 H          7.6150327076       -0.4057938188       -0.2893192679
 H          4.2421269300       -2.8409126942        0.6948171236
 C          5.4849024077        3.0151290115       -0.4392013878
 H          5.9059192432        3.9837195802       -0.6638483389
 C          6.2890156752        1.9011803947       -0.4152229452
 H          7.3452489794        1.9910363347       -0.6205166337
 C          1.6370989051        0.2445749101        0.6951476827
 H          0.5849826158        0.1249991856        0.9036439662
 C          2.4456703417       -0.8627116600        0.7065759219
 H          2.0276389654       -1.8335730788        0.9274664461
 C          6.9063178344       -3.0371999695        0.2575415426
 C          8.3776877686       -2.7511239401       -0.0461179294
 H          8.5045674915       -2.3446302599       -1.0470215402
 H          8.9400982571       -3.6794111045        0.0045800418
 H          8.8070956333       -2.0672162271        0.6825072253
 C          6.3786423136       -4.0379302196       -0.7822791989
 H          6.4142659013       -3.6057025269       -1.7799572506
 H          5.3559150359       -4.3400483119       -0.5736122208
 H          6.9989212241       -4.9295347135       -0.7745819945
 C          6.8075181482       -3.6454121083        1.6651359607
 H          7.4378083382       -4.5280677562        1.7239200388
 H          5.7914306432       -3.9429641995        1.9095815387
 H          7.1474696954       -2.9326816956        2.4132782563
 C         -0.1093523759        2.6340749615        0.8018370127
 H         -0.5055774517        3.6528591184        0.8792348349
 H         -0.1767648339        2.1892254473        1.7980929759
 H          0.3273604270        2.2634387418       -1.8119362762
 C         -0.5971673156        1.7987148960       -1.5030477207
 C         -3.0025264505        0.6158675147       -0.7193425899
 C         -1.3693580084        1.1492722267       -2.4398998139
 C         -0.9813197080        1.8832072942       -0.1653467638
 C         -2.2143233589        1.3027947219        0.2436219466
 C         -2.5835820061        0.5344177197       -2.0721231022
 C         -4.2214190573        0.0106401154       -0.3394588390
 C         -6.6610001586       -1.2431411396        0.4426041614
 C         -5.0103266562       -0.6796901286       -1.2925584577
 C         -4.6779908640        0.0858970092        0.9976673151
 C         -5.8894596364       -0.5433466720        1.3609130100
 C         -6.2109915917       -1.2911789839       -0.8774429016
 H         -6.2023698484       -0.4647779834        2.3897127525
 H         -6.7893131541       -1.8133870542       -1.6246481158
 C         -2.7101605752        1.3823559976        1.5683150222
 H         -2.1546677145        1.9237353542        2.3180398907
 C         -3.8966672970        0.7981296838        1.9320332020
 H         -4.2455774590        0.8800501237        2.9505957766
 C         -3.3909339059       -0.1445305898       -3.0111034248
 H         -3.0641733668       -0.1899218501       -4.0391764300
 C         -4.5701636518       -0.7379737978       -2.6338251481
 H         -5.1753780197       -1.2552931481       -3.3630864585
 C         -7.9505060486       -1.9484967240        0.8165041521
 C         -8.2938133493       -1.7955835702        2.2990807227
 H         -7.5204235132       -2.2260584429        2.9315938882
 H         -9.2201688152       -2.3234056451        2.5082881952
 H         -8.4434649759       -0.7516382326        2.5654019483
 C         -7.7947628153       -3.4454830844        0.5038218415
 H         -6.9642757934       -3.8680753804        1.0654584336
 H         -7.6215583870       -3.6241910512       -0.5538149427
 H         -8.7018666595       -3.9711951439        0.7876319713
 C         -9.0994273898       -1.3587599286       -0.0154933819
 H         -9.1958691736       -0.2912657517        0.1701856922
 H        -10.0325296687       -1.8397624660        0.2634192941
 H         -8.9507958018       -1.5106091043       -1.0809563783
 H         -1.0502524727        1.1080836217       -3.4702816514
