77
       -105.32522112
 H         -0.1578189602        2.5540329237       -1.2675223361
 C          0.7370519606        2.0417723542       -0.9467460896
 C          3.0678324937        0.7428486597       -0.1220252664
 C          1.0904711896        0.8466280978       -1.5661005597
 C          1.5039906065        2.5939448971        0.0577161002
 C          2.6783203631        1.9561896165        0.5007752650
 C          2.2883312197        0.1835441005       -1.1705963379
 H          1.2077570930        3.5269269787        0.5128004086
 C          4.2489704986        0.0973941270        0.3079067628
 C          6.6104617397       -1.2278379057        1.2040414316
 C          4.6742143327       -1.1048743723       -0.3030125615
 C          5.0303694604        0.6447952639        1.3564357998
 C          6.1938457259       -0.0332118488        1.7812855087
 C          5.8461339635       -1.7409199355        0.1581540086
 H          6.7614876571        0.4097199939        2.5839453590
 H          6.1424111289       -2.6577768812       -0.3287011584
 C          3.4784113201        2.4949657302        1.5335201297
 H          3.1756112191        3.4243721542        1.9921610236
 C          4.6200594439        1.8574815481        1.9523407385
 H          5.2188700834        2.2813761369        2.7444707463
 C          2.7536394916       -1.0067754426       -1.7795425563
 H          2.2044955678       -1.4406194502       -2.6004285201
 C          3.9038951718       -1.6281817733       -1.3636094576
 H          4.2313949144       -2.5342700590       -1.8511336707
 C          7.8434085651       -1.9798595592        1.6682481727
 C          8.8222410436       -2.1051207905        0.4909752724
 H          8.3962621999       -2.6689680045       -0.3343184847
 H          9.7202554983       -2.6203671722        0.8194472722
 H          9.1071970773       -1.1210267204        0.1254208668
 C          7.4119731044       -3.3775395272        2.1403665740
 H          6.6948120537       -3.3005442717        2.9548968871
 H          8.2796956283       -3.9228497776        2.5000874162
 H          6.9618417903       -3.9561612418        1.3383262983
 C          8.5587806421       -1.2776125406        2.8235650756
 H          7.9132999791       -1.1897189235        3.6948184890
 H          8.9122648138       -0.2916969807        2.5301707598
 H          9.4261568548       -1.8630192998        3.1160325116
 C          0.2316195480        0.3066171950       -2.6757222298
 H          0.2343529390       -0.7865084114       -2.6571381262
 H          0.6883574797        0.6113761804       -3.6240409286
 H         -0.9995899685        1.8989784650       -4.4572985629
 C         -1.6743789548        1.5779399859       -3.6777050905
 C         -3.4443668813        0.7444404459       -1.6825976615
 C         -2.9965183918        1.9753053493       -3.7307678211
 C         -1.1949638084        0.7703520637       -2.6532613123
 C         -2.0824032184        0.3499089567       -1.6209079057
 C         -3.9119799167        1.5621811861       -2.7435712419
 C         -4.3520379338        0.3162010269       -0.6885121394
 C         -6.1883343324       -0.5687473596        1.3045809179
 C         -5.7178721515        0.6913655511       -0.7488800676
 C         -3.9135896386       -0.5003050830        0.3789378482
 C         -4.8423624088       -0.9245585308        1.3523785986
 C         -6.6057530962        0.2382121334        0.2514724682
 H         -4.4771460871       -1.5494176672        2.1533780513
 H         -7.6381129004        0.5395152627        0.1735951987
 C         -1.6689801784       -0.4580845566       -0.5355967116
 H         -0.6355322782       -0.7598419647       -0.4607643537
 C         -2.5512336173       -0.8678612705        0.4307381677
 H         -2.2085783801       -1.4874942194        1.2460640972
 C         -5.2754645881        1.9317142984       -2.7829988754
 H         -5.6209368449        2.5545199339       -3.5945727070
 C         -6.1541060187        1.5075808666       -1.8154629768
 H         -7.1936501736        1.7954031464       -1.8640031043
 C         -7.1310685242       -1.0680282633        2.3836086687
 C         -8.5672463083       -0.5845115103        2.1771533424
 H         -8.9756495264       -0.9455614615        1.2359501899
 H         -8.6289549232        0.5009929567        2.2091033707
 H         -9.1932023055       -0.9722553232        2.9761686670
 C         -6.6351427631       -0.5580314322        3.7456249318
 H         -7.3150521116       -0.8881492863        4.5256939636
 H         -6.6039809608        0.5293233100        3.7574255522
 H         -5.6440534267       -0.9341105418        3.9845301870
 C         -7.1260046271       -2.6045021434        2.3675954454
 H         -7.8166045370       -2.9773290787        3.1185099586
 H         -6.1422245553       -3.0105661501        2.5867139883
 H         -7.4441316192       -2.9768232906        1.3962858029
 H         -3.3404438924        2.6015932877       -4.5399844683
