77
       -105.32512942
 H          1.3056018738        4.8370891510        0.2099902199
 C          1.9177278127        3.9475607325        0.1946974521
 C          3.5266059455        1.6629685138        0.1681695574
 C          1.3359291822        2.7165441650        0.4733606774
 C          3.2636041877        4.0656159620       -0.0941675000
 C          4.0990338367        2.9319015047       -0.1059933427
 C          2.1409041197        1.5412670963        0.4498546949
 H          3.6878076824        5.0355567124       -0.3054175746
 C          4.3530562725        0.5173608909        0.1681142293
 C          6.0246755376       -1.7918685837        0.1921196670
 C          3.8096030620       -0.7588114987        0.4408606501
 C          5.7411715835        0.6292546081       -0.0974218852
 C          6.5458814067       -0.5311166071       -0.0788242031
 C          4.6584532844       -1.8855511060        0.4471666757
 H          7.5978043890       -0.4100412872       -0.2823397333
 H          4.2139338666       -2.8454524102        0.6626117558
 C          5.4834064134        3.0226983637       -0.3751331582
 H          5.9090245181        3.9930528859       -0.5828615394
 C          6.2824252496        1.9048304575       -0.3696326869
 H          7.3391812884        1.9933428947       -0.5728144396
 C          1.6220981522        0.2507202360        0.7084771201
 H          0.5692214180        0.1323161242        0.9137315765
 C          2.4258905151       -0.8600660643        0.7032513981
 H          2.0034160427       -1.8325289290        0.9080633285
 C          6.8771941879       -3.0467247916        0.2223535660
 C          6.7825171270       -3.6697628250        1.6237925419
 H          7.1315224170       -2.9675596526        2.3776939024
 H          7.4071841494       -4.5571884609        1.6692060124
 H          5.7657433428       -3.9629378465        1.8707431927
 C          8.3482577231       -2.7637753645       -0.0857259250
 H          8.9061827619       -3.6955089074       -0.0513547529
 H          8.7855055010       -2.0924337269        0.6498602268
 H          8.4712734075       -2.3438203654       -1.0815553059
 C          6.3401158892       -4.0337629392       -0.8256441419
 H          6.3704713482       -3.5899972510       -1.8184174559
 H          5.3180710401       -4.3360305862       -0.6139880306
 H          6.9580846572       -4.9269770723       -0.8324404842
 C         -0.1150419906        2.6445605114        0.8485886269
 H         -0.5088351301        3.6632439956        0.9385591955
 H         -0.1875955737        2.1860202396        1.8381368301
 H          0.3208815213        2.3394197668       -1.7716947705
 C         -0.5999420728        1.8604672904       -1.4736563417
 C         -2.9953539069        0.6406755087       -0.7170324564
 C         -1.3678842299        1.2280603172       -2.4254232276
 C         -0.9837134849        1.9100871704       -0.1340089349
 C         -2.2119353429        1.3107219474        0.2617065402
 C         -2.5770086400        0.5951500167       -2.0716833195
 C         -4.2088611364        0.0163719447       -0.3510027524
 C         -6.6362347570       -1.2778705089        0.4026879482
 C         -4.9928376701       -0.6574198565       -1.3198844377
 C         -4.6648457028        0.0554989269        0.9878758902
 C         -5.8701953001       -0.5932492040        1.3368988185
 C         -6.1875559691       -1.2894477708       -0.9186281889
 H         -6.1827486830       -0.5422594271        2.3675421153
 H         -6.7621837483       -1.7982757147       -1.6778192963
 C         -2.7076777328        1.3547336266        1.5881036853
 H         -2.1564514667        1.8829541416        2.3502791244
 C         -3.8889556038        0.7520393205        1.9384530377
 H         -4.2378208726        0.8068388380        2.9588499068
 C         -3.3797861314       -0.0672311799       -3.0262598539
 H         -3.0537048789       -0.0848819136       -4.0553981330
 C         -4.5537272657       -0.6793410246       -2.6625674394
 H         -5.1554414652       -1.1837409617       -3.4036768248
 C         -7.9183917221       -2.0045432068        0.7606997789
 C         -8.2605564474       -1.8921164984        2.2471563447
 H         -8.4201000693       -0.8567017275        2.5397230678
 H         -7.4817773391       -2.3305172756        2.8675039664
 H         -9.1812469426       -2.4342121118        2.4445401220
 C         -7.7489538457       -3.4916873828        0.4104068019
 H         -8.6504379964       -4.0330207945        0.6825191052
 H         -6.9133739535       -3.9202058878        0.9598755344
 H         -7.5761218944       -3.6422597228       -0.6516633305
 C         -9.0742689682       -1.4051818673       -0.0545958225
 H         -9.1807444157       -0.3437058070        0.1581164461
 H        -10.0022261861       -1.9021273462        0.2133194643
 H         -8.9258283260       -1.5286122644       -1.1237526512
 H         -1.0493738619        1.2141856752       -3.4567161395
