26
 01
C       -1.2415470000     -1.4008620000     -0.0000740000                 
C       -1.2415990000     -2.8035430000     -0.0001000000                 
C       -0.0416460000     -3.5140180000     -0.0000700000                 
C        1.1747190000     -2.8321510000     -0.0000070000                 
C        1.2079720000     -1.4298450000     -0.0000750000                 
C       -0.0084330000     -0.7084270000     -0.0000320000                 
C        2.4207220000     -0.7274170000     -0.0000780000                 
C        2.4372010000      0.6698300000      0.0000080000                 
C        1.2415320000      1.4008590000      0.0001050000                 
C        0.0084190000      0.7084220000     -0.0000370000                 
C       -1.2079860000      1.4298390000      0.0000060000                 
C       -2.4206350000      0.7274070000     -0.0000900000                 
C       -2.4372150000     -0.6698350000     -0.0000770000                 
C        1.2415840000      2.8035400000      0.0001310000                 
C        0.0416290000      3.5140190000      0.0002010000                 
C       -1.1747350000      2.8321510000      0.0001370000                 
H       -2.1972420000     -3.3482870000     -0.0001440000                 
H       -0.0546540000     -4.6139410000     -0.0000970000                 
H        2.1171850000     -3.3993870000      0.0000980000                 
H        3.3704760000     -1.2823650000     -0.0001500000                 
H        3.3998280000      1.2021360000     -0.0000010000                 
H       -3.3703790000      1.2823710000     -0.0001760000                 
H       -3.3998600000     -1.2021070000     -0.0000690000                 
H        2.1972280000      3.3482830000      0.0000950000                 
H        0.0546380000      4.6139420000      0.0003070000                 
H       -2.1172020000      3.3993860000      0.0001910000                 




