77
       -105.32646967
 H          0.7484093720        3.9503703401        0.2725506145
 C          1.5474665189        3.2245159142        0.2418611477
 C          3.6278063950        1.3633126929        0.1780263685
 C          1.2787954460        1.9061112276        0.6034817464
 C          2.8083785176        3.6315920756       -0.1380965700
 C          3.8813867061        2.7170863049       -0.1623536618
 C          2.3223883417        0.9419154059        0.5467582311
H	-0.002844398655001079	6.723596266358333	-0.4060944695
C	1.7015461923449986	2.497239064858333	0.1530130185
C	3.8517617134449984	0.624759035758333	0.1321807654
C	1.479545955244999	1.138135213858333	0.4775080496
C	3.010940461444999	2.913951260158333	-0.19195597
C	4.0556086271449985	1.966917402758333	-0.1915698154
C	2.5614415782449984	0.22950723415833285	0.4591726196
H	5.0438619769449975	2.313590342758333	-0.4533851207
H	2.3533377789449985	-0.797403636141667	0.7135181197
C	2.2004924383449986	5.1737599238583325	-0.5125887842
H	2.3799163517449986	6.2069077020583325	-0.7698831463
C	3.234067175844999	4.269082499558333	-0.5232627291
