77
       -105.32498310
 H         -0.1134456910        2.5364718650       -1.5463009513
 C          0.7659208219        1.9864703138       -1.2456810821
 C          3.0560155779        0.5810947598       -0.4847610370
 C          1.0651343765        1.8803353721        0.1097053817
 C          1.5668492796        1.4177813964       -2.2133360997
 C          2.7216016057        0.6945274157       -1.8584862845
 C          2.2423968876        1.1853739310        0.5119308759
 H          1.3130272062        1.5255380714       -3.2570095834
 C          4.2165798067       -0.1360182283       -0.1166717907
 C          6.5345498412       -1.6213660739        0.6298517080
 C          4.5877033708       -0.2542033353        1.2426915670
 C          5.0312912066       -0.7469391630       -1.1029131109
 C          6.1720058916       -1.4778962729       -0.7050597570
 C          5.7390420497       -0.9938003685        1.5861529095
 H          6.7658744225       -1.9329134596       -1.4815585607
 H          5.9936979704       -1.0656706109        2.6327733596
 C          3.5550271465        0.0933062144       -2.8284004037
 H          3.2944232300        0.1966213675       -3.8711098335
 C          4.6761267942       -0.6099737573       -2.4627361909
 H          5.3008542950       -1.0655563847       -3.2163162590
 C          2.6550457845        1.0724058280        1.8615011679
 H          2.0806861901        1.5479164489        2.6410524065
 C          3.7855426754        0.3803766018        2.2152574299
 H          4.0723511071        0.3151665976        3.2542069391
 C          7.7419013689       -2.4260081752        1.0725589675
 C          7.2614153009       -3.5569889689        1.9958958396
 H          6.5559167955       -4.2009626213        1.4750367417
 H          6.7813471176       -3.1734482021        2.8920636435
 H          8.1109222981       -4.1598825553        2.3033949017
 C          8.7029296515       -1.5015961007        1.8352069180
 H          9.0224519962       -0.6771523887        1.2015994372
 H          9.5833833806       -2.0622802678        2.1355850324
 H          8.2465821945       -1.0903097605        2.7313631900
 C          8.4957709797       -3.0484390244       -0.1038453177
 H          9.3421406185       -3.6157707371        0.2734725304
 H          8.8851197088       -2.2850348305       -0.7736650874
 H          7.8627827541       -3.7352354745       -0.6616192016
 C          0.1664769543        2.5479067018        1.1130254354
 H          0.5907229918        3.5344144731        1.3310737903
 H          0.1615660568        1.9879624739        2.0517292001
 H         -1.1359571740        4.8519994759        0.6345953425
 C         -1.7764834294        3.9948330425        0.4890843223
 C         -3.4589614363        1.7934835593        0.1257358995
 C         -3.0976454613        4.1976446023        0.1395368259
 C         -1.2555470015        2.7185514511        0.6657652063
 C         -2.0978317371        1.5861837777        0.4702163826
 C         -3.9696310873        3.1066215047       -0.0413669968
 C         -4.3229992771        0.6890186687       -0.0447264847
 C         -6.0716769069       -1.5396560447       -0.3650826549
 C         -5.6880160958        0.8849636427       -0.3737598188
 C         -3.8412945511       -0.6299902747        0.1179662887
 C         -4.7270969171       -1.7155188309       -0.0463995898
 C         -6.5320100110       -0.2370502937       -0.5258845954
 H         -4.3293742495       -2.7102365760        0.0869186047
 H         -7.5651219214       -0.0522616651       -0.7731774632
 C         -1.6406983823        0.2554028304        0.6171147982
 H         -0.6070280512        0.0730341906        0.8680415979
 C         -2.4804095408       -0.8148481009        0.4459660376
 H         -2.1049634628       -1.8199655826        0.5680183231
 C         -5.3314057451        3.2818428288       -0.3760474020
 H         -5.7099725265        4.2853002855       -0.5011598427
 C         -6.1675692947        2.2032376121       -0.5359702830
 H         -7.2066070466        2.3558643886       -0.7868880582
 C         -6.9667808344       -2.7549857389       -0.5203736673
 C         -6.9697644913       -3.5354277856        0.8032210633
 H         -5.9791292714       -3.8974589009        1.0645553523
 H         -7.6277338941       -4.3952170592        0.7158289833
 H         -7.3329598821       -2.9086678595        1.6147129560
 C         -6.4068536550       -3.6380441185       -1.6463698802
 H         -6.3705427953       -3.0850549062       -2.5824944588
 H         -7.0517113747       -4.5010197615       -1.7848994670
 H         -5.4074362975       -3.9999729051       -1.4206096093
 C         -8.4085387410       -2.3808773459       -0.8672847634
 H         -8.4636789320       -1.8498857508       -1.8149868880
 H         -8.8607631481       -1.7769043432       -0.0838843463
 H         -8.9994782919       -3.2874854502       -0.9644534048
 H         -3.4745338250        5.2010034415        0.0107251468
