77
       -105.32476984
 H         -0.0488776068        2.9759567230       -1.1000774642
 C          0.8043940276        2.3791500535       -0.8137636439
 C          3.0236347102        0.8513970782       -0.0809478882
 C          1.1212015519        1.2505166355       -1.5699636851
 C          1.5548987231        2.7565252234        0.2764503483
 C          2.6747693379        1.9988685975        0.6765759947
 C          2.2621086216        0.4755087123       -1.2213485456
 H          1.2915251895        3.6412674809        0.8359472411
 C          4.1456151417        0.0860272771        0.3087340904
 C          6.3781389438       -1.4932260271        1.1198282590
 C          4.5320024930       -1.0562955075       -0.4314847261
 C          4.9057307634        0.4504032123        1.4475562902
 C          6.0033762748       -0.3493329103        1.8259360163
 C          5.6412527967       -1.8226290557       -0.0100135040
 H          6.5612798407       -0.0495173398        2.7001889718
 H          5.9022621937       -2.6868276792       -0.5995339662
 C          3.4558125779        2.3574562147        1.7970834453
 H          3.1851509929        3.2403305104        2.3565739091
 C          4.5396645525        1.6044771566        2.1756911135
 H          5.1252309938        1.8899431061        3.0366972143
 C          2.6916551738       -0.6558736603       -1.9581525622
 H          2.1604256370       -0.9504453827       -2.8497601279
 C          3.7845924609       -1.3930041728       -1.5798428502
 H          4.0840627027       -2.2489152743       -2.1660566647
 C          7.5516556533       -2.3199684681        1.6090557496
 C          7.2381159079       -2.8144392956        3.0304953231
 H          7.1066104507       -1.9914309433        3.7275731074
 H          8.0585561559       -3.4290065898        3.3895636066
 H          6.3322119387       -3.4170228399        3.0335830246
 C          8.8090515585       -1.4377600256        1.6293893094
 H          9.0199907488       -1.0514935453        0.6346088780
 H          9.6606737854       -2.0285737581        1.9542187085
 H          8.7064387773       -0.5973406951        2.3101992995
 C          7.8229386037       -3.5355770784        0.7213873090
 H          8.0795024764       -3.2364142432       -0.2924084450
 H          6.9680556030       -4.2080178689        0.6978474050
 H          8.6661720070       -4.0908702708        1.1227507034
 C          0.2689431171        0.9236934906       -2.7639514605
 H          0.3124391118       -0.1443178593       -2.9899480484
 H          0.6924259468        1.4513741225       -3.6258286697
 H         -1.0961065310        2.7385250631       -4.2077775685
 C         -1.7265321851        2.2590082858       -3.4737136084
 C         -3.3782977392        1.0151248393       -1.5938830202
 C         -3.0621706010        2.5985707396       -3.4133391998
 C         -1.1741849604        1.3093902331       -2.6186869535
 C         -2.0008045601        0.6776714511       -1.6485899997
 C         -3.9206999703        1.9815555712       -2.4800392188
 C         -4.2266020944        0.3810509528       -0.6593281213
 C         -5.9371329707       -0.9197496525        1.2138608502
 C         -5.6059400972        0.7010450240       -0.6070944447
 C         -3.7151792278       -0.5891302015        0.2337843972
 C         -4.5830043054       -1.2193837683        1.1529199388
 C         -6.4286756567        0.0411349040        0.3286969110
 H         -4.1565462588       -1.9552332804        1.8155320092
 H         -7.4763481711        0.3009563450        0.3437455694
 C         -1.5144996503       -0.2902194001       -0.7373527549
 H         -0.4690293334       -0.5573696069       -0.7544571936
 C         -2.3397581967       -0.9000202778        0.1715596520
 H         -1.9411082835       -1.6377055262        0.8520114151
 C         -5.2966465617        2.2919567645       -2.4086739608
 H         -5.6986833743        3.0289996432       -3.0876180694
 C         -6.1178105188        1.6693717593       -1.4997306561
 H         -7.1685092459        1.9151731686       -1.4613964955
 C         -6.8853381315       -1.5902964249        2.1896047536
 C         -7.5181613397       -0.5123019135        3.0828805508
 H         -8.1017491757        0.2016280881        2.5085558678
 H         -6.7492777481        0.0306394801        3.6285303012
 H         -8.1811077414       -0.9823421730        3.8035762096
 C         -6.1799429485       -2.6110668555        3.0841959855
 H         -6.9055624956       -3.0557454340        3.7595849325
 H         -5.4101414388       -2.1406237415        3.6922109417
 H         -5.7406938125       -3.4154254318        2.4981966109
 C         -7.9794984942       -2.3149751189        1.3902686249
 H         -8.5689794585       -1.6270818591        0.7907413172
 H         -8.6525401405       -2.8222874642        2.0754946707
 H         -7.5396426411       -3.0585564459        0.7291395000
 H         -3.4638892298        3.3377154214       -4.0897867342
