77
       -105.32470042
 H         -0.3216924443        1.7789650904        0.8326021457
 C          0.7049573485        1.4695956544        0.7023417079
 C          3.3612981251        0.6811220530        0.3775690364
 C          1.0563806947        0.1569278495        1.0107764738
 C          1.6315836070        2.3855048025        0.2551853958
 C          2.9800619183        2.0160801566        0.0877641766
 C          2.4030677489       -0.2662233919        0.8358930886
 H          1.3318005100        3.3992300632        0.0368380201
 C          4.7124984708        0.3026709875        0.2086524623
 C          7.4412640027       -0.4615081559       -0.1303155881
 C          5.1299140979       -1.0197744380        0.4858326112
 C          5.6760985592        1.2416233877       -0.2382508624
 C          7.0191706789        0.8365337433       -0.3972609853
 C          6.4843438919       -1.3732342500        0.3098383304
 H          7.7236934587        1.5777006596       -0.7393034284
 H          6.7683644751       -2.3912393022        0.5299622721
 C          3.9541642788        2.9381084797       -0.3569854225
 H          3.6483974493        3.9512479487       -0.5711059824
 C          5.2655433904        2.5642529468       -0.5137994466
 H          5.9985970890        3.2819120207       -0.8503630278
 C          2.8532049516       -1.5830641963        1.0988393229
 H          2.1578545151       -2.3338336890        1.4409920555
 C          4.1647358746       -1.9476301390        0.9322617869
 H          4.4721360737       -2.9604491908        1.1462106990
 C          8.8803931878       -0.9094845555       -0.3014566039
 C          9.7927056391        0.2181079140       -0.7869925240
 H          9.8203719556        1.0400164292       -0.0750224026
 H          9.4808207327        0.5892517190       -1.7608231487
 H         10.8059623658       -0.1605486005       -0.8897339355
 C          8.9204840796       -2.0478610684       -1.3332775726
 H          8.5215487227       -1.7113029798       -2.2878245062
 H          8.3494718775       -2.9126042841       -1.0065784114
 H          9.9486225524       -2.3635404236       -1.4850619904
 C          9.4057305955       -1.4133398977        1.0517345445
 H          9.3513979756       -0.6247501493        1.7991143603
 H         10.4441563873       -1.7146371005        0.9484297192
 H          8.8431333397       -2.2697182910        1.4131097703
 C         -0.0367136989       -0.7355701127        1.5328777157
 H         -0.4382239307       -0.2869841544        2.4418138564
 H          0.3460872411       -1.7202163597        1.8012512653
 H          0.2783802916       -1.9326947040       -0.7814780728
 C         -0.7400489838       -1.5887699341       -0.6754066766
 C         -3.3753442312       -0.7146840749       -0.4012400410
 C         -1.6446531517       -1.8440597200       -1.6824720458
 C         -1.1046041818       -0.9149958066        0.4884602726
 C         -2.4398549959       -0.4482674949        0.6376532869
 C         -2.9824216383       -1.4195524970       -1.5675456877
 C         -4.7151468245       -0.2810857149       -0.2814325506
 C         -7.4205096410        0.5945002593       -0.0389840195
 C         -5.6566684554       -0.5500427730       -1.3066396223
 C         -5.1428876682        0.4271804387        0.8654498638
 C         -6.4852507183        0.8505941571        0.9611878774
 C         -6.9887371588       -0.1057077854       -1.1604388134
 H         -6.7774779503        1.3902728031        1.8493290026
 H         -7.6767213904       -0.3287696793       -1.9601816074
 C         -2.8996843291        0.2669501177        1.7703354604
 H         -2.2208106333        0.4953813101        2.5773698734
 C         -4.1998664708        0.6884492965        1.8824828566
 H         -4.5155415470        1.2286366904        2.7626107315
 C         -3.9346607136       -1.6786217108       -2.5789499299
 H         -3.6206740615       -2.2188303095       -3.4595074528
 C         -5.2355132138       -1.2589733145       -2.4528946905
 H         -5.9519782095       -1.4685338658       -3.2329234220
 C         -8.8471536856        1.0828993538        0.1262231673
 C         -9.7391704618        0.7010334071       -1.0561478006
 H         -9.8039821486       -0.3787206199       -1.1708926087
 H         -9.3822987603        1.1456596592       -1.9825733162
 H        -10.7448704126        1.0729551251       -0.8804630600
 C         -8.8282076426        2.6149385167        0.2486001087
 H         -9.8452932180        2.9835101447        0.3458106125
 H         -8.3853631930        3.0626953937       -0.6385184634
 H         -8.2671859702        2.9456688339        1.1183748801
 C         -9.4385968375        0.4650587919        1.4025983558
 H         -9.4203798518       -0.6210616648        1.3440719561
 H        -10.4709921620        0.7833504598        1.5150400795
 H         -8.8956750253        0.7713199398        2.2924737776
 H         -1.3360177256       -2.3805293979       -2.5668511816
