77
       -105.32455822
 H         -0.0360711740        2.9157562498       -1.3475540798
 C          0.8146081770        2.3031878773       -1.0880373527
 C          3.0270868179        0.7333740755       -0.4273818768
 C          1.0732143000        2.0442137297        0.2557266868
 C          1.6195513683        1.8088406910       -2.0917554725
 C          2.7353910456        1.0049933798       -1.7886339195
 C          2.2120756903        1.2645285883        0.6095993920
 H          1.3991055088        2.0363635086       -3.1236912517
 C          4.1459948092       -0.0698653743       -0.1116307198
 C          6.3720438903       -1.7364848593        0.5245265696
 C          4.4745112947       -0.3479792198        1.2353695015
 C          4.9604790755       -0.6100080923       -1.1385413767
 C          6.0550426966       -1.4332616305       -0.7952388605
 C          5.5808013632       -1.1745138888        1.5240342871
 H          6.6496308025       -1.8307409420       -1.6021754978
 H          5.8030315001       -1.3682838112        2.5625357458
 C          3.5703794918        0.4748038778       -2.7976481818
 H          3.3437614341        0.7003175987       -3.8289617651
 C          4.6503941275       -0.3127318418       -2.4836774429
 H          5.2764740128       -0.7128790776       -3.2670139044
 C          2.5851922306        0.9934022311        1.9482882774
 H          2.0125094093        1.4103975031        2.7619434033
 C          3.6753833216        0.2180941125        2.2516868259
 H          3.9317751263        0.0323158988        3.2840010129
 C          7.5252599315       -2.6452564093        0.9057013829
 C          8.5078326935       -1.8601099394        1.7874898780
 H          8.8858478481       -0.9897208870        1.2557434078
 H          9.3505382037       -2.4950297763        2.0453811368
 H          8.0463331006       -1.5250254547        2.7122744137
 C          8.2817071754       -3.1761694343       -0.3131505048
 H          8.7278693252       -2.3665974084       -0.8863265520
 H          7.6322089924       -3.7649225741       -0.9573758887
 H          9.0875167743       -3.8243168953        0.0202352214
 C          6.9621862764       -3.8424362271        1.6883196407
 H          7.7713676512       -4.5183368710        1.9492121991
 H          6.2419150468       -4.3890740986        1.0832025255
 H          6.4747442136       -3.5328044985        2.6087803655
 C          0.1626457804        2.6425419571        1.2911418228
 H          0.5508791988        3.6367505217        1.5385741837
 H          0.1815357029        2.0535460044        2.2110185463
 H         -1.2510805744        4.9089564652        0.9627869862
 C         -1.8497688479        4.0338390808        0.7579504278
 C         -3.4203558138        1.7805300197        0.2427806677
 C         -3.1764760564        4.1946929771        0.4161005825
 C         -1.2669346950        2.7732287860        0.8530649004
 C         -2.0516827024        1.6182416995        0.5815404155
 C         -3.9945866612        3.0753408148        0.1580027934
 C         -4.2283734866        0.6485391219       -0.0038015989
 C         -5.8581036188       -1.6417412970       -0.4787389759
 C         -5.5992187314        0.8001878339       -0.3286606179
 C         -3.6848420479       -0.6546675139        0.0774154224
 C         -4.5127680756       -1.7735450597       -0.1627875050
 C         -6.3818077241       -0.3502241386       -0.5571169131
 H         -4.0625811874       -2.7504438650       -0.0893822945
 H         -7.4241029657       -0.2057830882       -0.7981712246
 C         -1.5326473587        0.3030413430        0.6483095825
 H         -0.4930419263        0.1546182938        0.8969533653
 C         -2.3185671851       -0.7930259943        0.4036615825
 H         -1.8955945944       -1.7846804665        0.4655828300
 C         -5.3612382521        3.2067687434       -0.1731180246
 H         -5.7877699027        4.1967589232       -0.2349482924
 C         -6.1432969911        2.1017448050       -0.4085962734
 H         -7.1875999214        2.2197856037       -0.6562962888
 C         -6.7638407706       -2.8314380545       -0.7338506045
 C         -7.9030622265       -2.8094338396        0.2971694990
 H         -8.5475003163       -3.6701574855        0.1431037676
 H         -8.5133692271       -1.9149399728        0.2103512133
 H         -7.5036457624       -2.8573709873        1.3079347543
 C         -6.0256135330       -4.1658582240       -0.6145538494
 H         -5.6250736038       -4.3095615993        0.3865602201
 H         -5.2212286434       -4.2405505517       -1.3432497589
 H         -6.7212497016       -4.9774388637       -0.8090723565
 C         -7.3411755141       -2.7176175635       -2.1530411150
 H         -7.9462512879       -1.8238795624       -2.2763539654
 H         -7.9715368913       -3.5781752110       -2.3577995074
 H         -6.5409916915       -2.6965744295       -2.8899019386
 H         -3.6025441991        5.1844114003        0.3511016121
