77
       -105.32448834
 H         -0.3448211749        1.2840199022        1.6687652739
 C          0.6764750246        1.0508687047        1.4057966382
 C          3.3182465496        0.4542426876        0.7364949704
 C          1.0693570691        1.1547194636        0.0731682678
 C          1.5568410337        0.6778525661        2.3975376814
 C          2.8970448360        0.3759933715        2.0884904436
 C          2.4087497675        0.8402276503       -0.2878854051
 H          1.2267097903        0.6204651752        3.4236540167
 C          4.6603147750        0.1459033675        0.4182556414
 C          7.3678845910       -0.4854995609       -0.2260226444
 C          5.1165347443        0.2109930762       -0.9187205599
 C          5.5755818989       -0.2322283628        1.4327493539
 C          6.9092099514       -0.5393159426        1.0858658393
 C          6.4597402614       -0.1057319695       -1.2117674971
 H          7.5764440546       -0.8236134272        1.8837636343
 H          6.7745216765       -0.0454911123       -2.2426601174
 C          3.8241284512        0.0005620982        3.0866795579
 H          3.4890535656       -0.0497520099        4.1118551079
 C          5.1269638959       -0.2936669392        2.7702039570
 H          5.8238418494       -0.5759887507        3.5450164152
 C          2.8979817498        0.8954879596       -1.6158670828
 H          2.2413506439        1.1832926926       -2.4222920979
 C          4.2003065087        0.5934978242       -1.9217308084
 H          4.5385303657        0.6491949664       -2.9457464811
 C          8.7958063809       -0.8218930655       -0.6120082749
 C          9.4316891228        0.4088254780       -1.2767801887
 H          9.4243086207        1.2565456828       -0.5951041576
 H          8.9108976608        0.6939950760       -2.1866955816
 H         10.4631395961        0.1886469301       -1.5364125480
 C          8.7720961406       -1.9963873876       -1.6030472351
 H          8.2422087606       -1.7455584315       -2.5178598332
 H          8.2940021329       -2.8644006543       -1.1540468842
 H          9.7898166146       -2.2667330892       -1.8693519769
 C          9.6512722501       -1.2201275202        0.5917966746
 H          9.7250731031       -0.4082037265        1.3118457506
 H         10.6579789609       -1.4513614423        0.2546057348
 H          9.2572967694       -2.1078331099        1.0818778207
 C          0.0255640255        1.6064188644       -0.9125246053
 H          0.4570447652        1.7826410055       -1.8975653893
 H         -0.3882457885        2.5530527827       -0.5658526052
 H          0.3531416667       -0.7848132088       -1.9512815957
 C         -0.6698102637       -0.6536866674       -1.6304426497
 C         -3.3159085433       -0.3204765639       -0.8118869026
 C         -1.5723164004       -1.6751917508       -1.8298422412
 C         -1.0419522977        0.5535395278       -1.0429485058
 C         -2.3834384876        0.7348444316       -0.6061680036
 C         -2.9151600388       -1.5318405257       -1.4311001225
 C         -4.6606363737       -0.1725036194       -0.4028611836
 C         -7.3740351435        0.1236048768        0.4305030835
 C         -5.5986924857       -1.2149447143       -0.6108743031
 C         -5.0967703437        1.0198585987        0.2199835540
 C         -6.4431671126        1.1419063425        0.6233577570
 C         -6.9347651717       -1.0416037480       -0.1889014292
 H         -6.7420105007        2.0651823049        1.0963377101
 H         -7.6197265118       -1.8558798241       -0.3634056726
 C         -2.8529229513        1.9152352144        0.0200827064
 H         -2.1785078515        2.7391378413        0.1952060420
 C         -4.1578328745        2.0546919590        0.4182847524
 H         -4.4805235825        2.9706386413        0.8905322328
 C         -3.8646294599       -2.5587959586       -1.6328179704
 H         -3.5448069835       -3.4731906260       -2.1096709178
 C         -5.1699290231       -2.4058866145       -1.2366807229
 H         -5.8840170436       -3.1988373804       -1.4009585359
 C         -8.8043576564        0.3175138073        0.8970229782
 C         -9.3982599039        1.5401253558        0.1806251585
 H         -9.3773953584        1.3973262111       -0.8975904390
 H         -8.8583210492        2.4526459007        0.4177532601
 H        -10.4316773857        1.6737111427        0.4871921734
 C         -8.7955588050        0.5558039748        2.4154206037
 H         -8.3489124445       -0.2913634352        2.9315905505
 H         -9.8155180910        0.6727262001        2.7700542720
 H         -8.2431880306        1.4525474423        2.6825461212
 C         -9.6881291411       -0.8953195690        0.6012177922
 H         -9.7491644112       -1.0901165676       -0.4671956431
 H        -10.6959974707       -0.6989040380        0.9565323509
 H         -9.3268087574       -1.7840027108        1.1141249523
 H         -1.2576243864       -2.5938650897       -2.3012279372
