77
       -105.32434021
 H         -0.3534747893        1.9732101709        1.0847106564
 C          0.6566181639        1.6360199526        0.9050955568
 C          3.2662990893        0.7700687664        0.4351552459
 C          1.0273472685        0.3596469491        1.3294578930
 C          1.5438579628        2.4807407832        0.2793438252
 C          2.8695787946        2.0704482443        0.0309417376
 C          2.3499062279       -0.0996118606        1.0905423421
 H          1.2328785787        3.4686714653       -0.0246109384
 C          4.5906111661        0.3479373200        0.1799605536
 C          7.2553512938       -0.5204657401       -0.3560910912
 C          5.0247603524       -0.9421778014        0.5665598164
 C          5.5095991621        1.2096493582       -0.4685824694
 C          6.8200610953        0.7548298745       -0.7191636875
 C          6.3487943041       -1.3497678468        0.2904482291
 H          7.4980398812        1.4348927606       -1.2124396914
 H          6.6400526411       -2.3403154060        0.6011487452
 C          3.8019691665        2.9188574919       -0.6056629038
 H          3.4858458341        3.9086101172       -0.8992110216
 C          5.0870278262        2.5028060301       -0.8494470201
 H          5.7887451657        3.1626205526       -1.3371997967
 C          2.8202906012       -1.3799919744        1.4753700473
 H          2.1631997240       -2.0646927908        1.9889986261
 C          4.1048250320       -1.7874515452        1.2221493545
 H          4.4271550665       -2.7708999962        1.5304807142
 C          8.6759956523       -0.9419321422       -0.6783857083
 C          8.8736759663       -0.8704015468       -2.2009620323
 H          8.1691121548       -1.5261789058       -2.7081786671
 H          9.8806747737       -1.1914288472       -2.4513288755
 H          8.7398137865        0.1384038578       -2.5816772226
 C          8.9851252514       -2.3660069903       -0.2144704963
 H          8.3373927227       -3.0909968113       -0.7027060505
 H          8.8896948049       -2.4606632728        0.8649136961
 H         10.0102258334       -2.6133686619       -0.4762286991
 C          9.6489923689        0.0218734951        0.0186838091
 H          9.4944085551        0.0069543805        1.0953486276
 H          9.5316856919        1.0434749110       -0.3318254233
 H         10.6707359128       -0.2857996097       -0.1843929634
 C         -0.0277812025       -0.4645225008        2.0179748474
 H         -0.4734916903        0.1349784061        2.8109705668
 H          0.4006491130       -1.3530216611        2.4804861959
 H          0.3368513609       -2.2509792655        0.1218689657
 C         -0.6702094258       -1.8631183420        0.0813792643
 C         -3.2718703297       -0.8631589421       -0.0307997561
 C         -1.5356889144       -2.3439637436       -0.8736326741
 C         -1.0595750399       -0.8984439686        1.0111363575
 C         -2.3781737429       -0.3729976372        0.9625291658
 C         -2.8569035136       -1.8583835121       -0.9522634950
 C         -4.5915722640       -0.3639766733       -0.1103188280
 C         -7.2465603780        0.6674206962       -0.2822997714
 C         -5.4880849408       -0.8499398454       -1.0940864297
 C         -5.0434363475        0.6299377848        0.7898470422
 C         -6.3622286831        1.1251822286        0.6851752373
 C         -6.7942552343       -0.3234505377       -1.1548112851
 H         -6.6674684182        1.8819833215        1.3898953438
 H         -7.4549954846       -0.7153622039       -1.9132896667
 C         -2.8661519808        0.6131555892        1.8558968167
 H         -2.2268445362        1.0004777049        2.6341431329
 C         -4.1460554812        1.0980375613        1.7727819121
 H         -4.4822428201        1.8496855265        2.4714525266
 C         -3.7672077868       -2.3375224881       -1.9198315679
 H         -3.4375691562       -3.1012675379       -2.6081265044
 C         -5.0479314229       -1.8490247554       -1.9907279652
 H         -5.7326717198       -2.2250026360       -2.7360035320
 C         -8.6607916169        1.1959371902       -0.4249671452
 C         -8.9905707480        2.2756965796        0.6065983341
 H        -10.0099466182        2.6187643885        0.4525965590
 H         -8.3346766660        3.1372797119        0.5016148667
 H         -8.9239951609        1.8883314689        1.6208253371
 C         -9.6458950663        0.0302611315       -0.2452083656
 H        -10.6638026372        0.4019314163       -0.3199860732
 H         -9.5196438827       -0.4280166814        0.7332437290
 H         -9.5133149217       -0.7359492398       -1.0039130297
 C         -8.8180805175        1.7984877876       -1.8301811464
 H         -8.1044606278        2.6057873300       -1.9809706167
 H         -9.8201077425        2.2027011389       -1.9412938529
 H         -8.6681589910        1.0568817184       -2.6099879506
 H         -1.2109342807       -3.1014930028       -1.5706175850
