77
       -105.32633886
 H          0.9558659914        4.3043204544       -0.2852204893
 C          1.6900983362        3.5131432153       -0.2512862143
 C          3.6063656124        1.4824452856       -0.1765907115
 C          1.3027219737        2.2137830122       -0.5689176316
 C          2.9896020419        3.8197583689        0.0936842820
 C          3.9806290159        2.8172502735        0.1257028745
 C          2.2634813470        1.1663606838       -0.5121884473
 H          3.2617782498        4.8370976203        0.3305857562
 C          4.5880046276        0.4671789881       -0.1481508501
 C          6.5695380510       -1.5823329646       -0.1190166089
 C          4.2446272082       -0.8738752059       -0.4396407512
 C          5.9341724287        0.7770614938        0.1666314748
 C          6.8935161080       -0.2563259582        0.1717484411
 C          5.2448084048       -1.8715252083       -0.4181100814
 H          7.9122843825        0.0091504344        0.4104729379
 H          4.9452386297       -2.8815619609       -0.6474344809
 C          5.3258907485        3.1053904454        0.4452281658
 H          5.5982946815        4.1249093092        0.6736626225
 C          6.2779484671        2.1151652361        0.4623875728
 H          7.3033695467        2.3528886617        0.7028404305
 C          1.9443009305       -0.1867880824       -0.7811725738
 H          0.9260559375       -0.4569062726       -1.0146756366
 C          2.8988809117       -1.1707157855       -0.7449756968
 H          2.6262290014       -2.1936280612       -0.9580334616
 C          7.6596461326       -2.6368473382       -0.0986823914
 C          8.7299224818       -2.2556329929       -1.1333510954
 H          9.5062265447       -3.0152560264       -1.1480790152
 H          9.1988362799       -1.3032205413       -0.9024994046
 H          8.2936078739       -2.1927308819       -2.1279092817
 C          7.1313892139       -4.0319990322       -0.4362671536
 H          7.9532488494       -4.7420051798       -0.4065549291
 H          6.7061436936       -4.0634764298       -1.4370055381
 H          6.3872734860       -4.3599916864        0.2863611527
 C          8.2825302092       -2.6764216158        1.3054505360
 H          8.7471823436       -1.7312945938        1.5719523340
 H          9.0481249405       -3.4461481125        1.3404140043
 H          7.5265494678       -2.9115660148        2.0516555224
 C         -0.1075997261        1.9619431257       -1.0125177864
 H         -0.0899930561        1.3506477323       -1.9199457338
 H         -0.5612486215        2.9214947476       -1.2838543452
 H          0.4230532537        1.4451120028        1.5927091618
 C         -0.5717920771        1.1290756562        1.3168518600
 C         -3.1606683022        0.3314967431        0.6326054484
 C         -1.3851838928        0.5643854494        2.2757397655
 C         -1.0043318054        1.3121454566        0.0061115313
 C         -2.3229258574        0.9153591365       -0.3547123939
 C         -2.6946074396        0.1502794080        1.9600028838
 C         -4.4750236161       -0.0686058453        0.3034604252
 C         -7.1262635787       -0.8771968054       -0.3678807327
 C         -5.3176203920       -0.6479582968        1.2840861137
 C         -4.9745707316        0.1072020446       -1.0084751359
 C         -6.2911809273       -0.3019741140       -1.3168856869
 C         -6.6236295804       -1.0388955549        0.9236509121
 H         -6.6353446133       -0.1519787120       -2.3276331002
 H         -7.2428022183       -1.4781915127        1.6912036075
 C         -2.8522215368        1.0843046679       -1.6574810806
 H         -2.2458163122        1.5345369089       -2.4275665172
 C         -4.1295888659        0.6958362336       -1.9730847191
 H         -4.5030543013        0.8413515081       -2.9757295783
 C         -3.5502261348       -0.4264535858        2.9246653435
 H         -3.1838424689       -0.5558761793        3.9320401361
 C         -4.8257018312       -0.8158243589        2.5978725048
 H         -5.4680986006       -1.2541105781        3.3468755109
 C         -8.5406123695       -1.3281712348       -0.6791577050
 C         -8.9270911082       -1.0810140918       -2.1382523949
 H         -9.9449154298       -1.4242130013       -2.3018809448
 H         -8.2812463302       -1.6322823330       -2.8182397742
 H         -8.8946667286       -0.0215896651       -2.3827816292
 C         -9.5144607658       -0.5538042039        0.2224814272
 H         -9.4222180213        0.5167596354        0.0527523136
 H         -9.3384195147       -0.7514773299        1.2762264964
 H        -10.5340539979       -0.8495689018       -0.0072924520
 C         -8.6503895337       -2.8342344883       -0.3935831076
 H         -7.9416097138       -3.3907754516       -1.0030711161
 H         -9.6522136385       -3.1768058499       -0.6360770673
 H         -8.4619764429       -3.0652940334        0.6511823210
 H         -1.0238520341        0.4400555537        3.2853550924
