77
       -105.32212096
 H          0.5507215653        4.5597817911        0.6156743000
 C          1.1931181873        3.7109880954        0.4304246158
 C          2.9010325005        1.5519666115       -0.0262279102
 C          1.0233325970        2.5506177389        1.1886040241
 C          2.1680015791        3.8136270950       -0.5364719373
 C          3.0495227996        2.7413334523       -0.7851599897
 C          1.8814674878        1.4410525483        0.9576379235
 H          2.2760868663        4.7267683778       -1.1018416006
 C          3.7985038449        0.4822389386       -0.2408838380
 C          5.6321660164       -1.6646304286       -0.6423115778
 C          3.6932041568       -0.7100608197        0.5135095346
 C          4.8323497292        0.5931498630       -1.2035973463
 C          5.7238240110       -0.4839510032       -1.3813697752
 C          4.6132774167       -1.7597955798        0.2957068733
 H          6.5026972648       -0.3706066182       -2.1202193973
 H          4.5024110973       -2.6509380897        0.8924060099
 C          4.0785861534        2.8294110728       -1.7477789620
 H          4.1779457137        3.7397571514       -2.3197567774
 C          4.9476006525        1.7858533130       -1.9523846109
 H          5.7347684439        1.8710877415       -2.6864597934
 C          1.7935403802        0.2323243770        1.6883691109
 H          1.0231273028        0.1241667566        2.4357277714
 C          2.6650840434       -0.8044930395        1.4760953376
 H          2.5765378862       -1.7103325769        2.0571933300
 C          6.6337221141       -2.7765817970       -0.8895001414
 C          6.3892993044       -3.9946823354        0.0024273725
 H          6.4824061499       -3.7394169533        1.0557096144
 H          7.1341733030       -4.7543354064       -0.2179255059
 H          5.4099420228       -4.4311672040       -0.1816723826
 C          8.0452263004       -2.2389662725       -0.6071819982
 H          8.1237875396       -1.8950655532        0.4218459830
 H          8.3072809606       -1.4156676545       -1.2658068267
 H          8.7716660233       -3.0321914879       -0.7588353289
 C          6.5276076940       -3.2165757760       -2.3582049790
 H          6.7703433339       -2.4094653817       -3.0437088184
 H          5.5216566235       -3.5667637082       -2.5799676054
 H          7.2216488362       -4.0314639344       -2.5428750012
 C          0.0235803589        2.5695210894        2.3106514107
 H         -0.5373513100        3.5090302139        2.2520839078
 H          0.5940486472        2.6042470466        3.2455668435
 H         -0.5030034504        1.1045340182        4.4756681612
 C         -1.1554077084        0.8368041552        3.6570506853
 C         -2.8882316407        0.1704157771        1.5737581058
 C         -2.1412245522       -0.1001334028        3.8718977239
 C         -0.9877748377        1.4630716241        2.4202230735
 C         -1.8581054541        1.1233477737        1.3487407241
 C         -3.0359033799       -0.4518103315        2.8401013979
 C         -3.7967995908       -0.1489157986        0.5401098047
 C         -5.6515658444       -0.7612578758       -1.5378050907
 C         -4.8410443765       -1.0805051260        0.7629753337
 C         -3.6920789538        0.4684728377       -0.7286021101
 C         -4.6228206221        0.1481563134       -1.7420349006
 C         -5.7421655556       -1.3653948283       -0.2826441547
 H         -4.5121101027        0.6420681134       -2.6940163311
 H         -6.5276594646       -2.0788588682       -0.0842434194
 C         -1.7718638356        1.7163520593        0.0667124133
 H         -0.9939149918        2.4379168638       -0.1279073440
 C         -2.6539233863        1.4023846600       -0.9347892150
 H         -2.5660205274        1.8797564375       -1.8993787467
 C         -4.0767020272       -1.3844503723        3.0408061146
 H         -4.1761864464       -1.8509322193        4.0094387064
 C         -4.9566054694       -1.6911120929        2.0319438403
 H         -5.7527020865       -2.4001411719        2.2030031061
 C         -6.6637884113       -1.1176714189       -2.6097136482
 C         -8.0698640455       -0.7750207521       -2.0936047494
 H         -8.1407278596        0.2835319648       -1.8531350304
 H         -8.3299923170       -1.3471856267       -1.2074727368
 H         -8.8026494821       -1.0003851248       -2.8631126746
 C         -6.5659852431       -2.6247262194       -2.8949839623
 H         -7.2700476234       -2.8911935874       -3.6779818976
 H         -6.8003674246       -3.2210248503       -2.0176092374
 H         -5.5647312501       -2.8852435858       -3.2316427160
 C         -6.4264283264       -0.3582550165       -3.9158571637
 H         -6.5100994071        0.7164064034       -3.7696601869
 H         -7.1806794164       -0.6503357950       -4.6412800387
 H         -5.4530451708       -0.5936076604       -4.3408646173
 H         -2.2478193772       -0.5614810858        4.8419318395
