77
       -105.32207469
 H          0.6003702372        4.6512562924        0.3508383666
 C          1.2240568022        3.7695409017        0.3811761471
 C          2.8795772491        1.5240075247        0.4502526989
 C          1.0654645264        2.7897306239       -0.6013183665
 C          2.1642188035        3.6539629613        1.3803284256
 C          3.0184352359        2.5332223420        1.4376213765
 C          1.8984074009        1.6380353622       -0.5715155929
 H          2.2650900043        4.4319813943        2.1217252859
 C          3.7480376777        0.4100815996        0.4779072672
 C          5.5179683385       -1.8256104468        0.5116648747
 C          3.6513984615       -0.6043622026       -0.5035582147
 C          4.7435041817        0.2990828395        1.4802637910
 C          5.6044664253       -0.8167664482        1.4726202851
 C          4.5391244349       -1.7026363127       -0.4649166100
 H          6.3550067000       -0.8735758141        2.2464766460
 H          4.4356149645       -2.4537466247       -1.2314488387
 C          4.0111094678        2.4018538055        2.4328980346
 H          4.1050658768        3.1775518656        3.1780270997
 C          4.8519221849        1.3161721491        2.4550989937
 H          5.6111387306        1.2333064655        3.2182987048
 C          1.8214834715        0.6050130394       -1.5356037695
 H          1.0830924586        0.6708062497       -2.3194256126
 C          2.6644543764       -0.4756617188       -1.5044965703
 H          2.5851584827       -1.2428378628       -2.2602685578
 C          6.4835463104       -2.9938612230        0.5702928190
 C          7.9155582304       -2.4527750335        0.4370378742
 H          8.1728861846       -1.7775383198        1.2483249113
 H          8.0366461770       -1.9215636700       -0.5045084816
 H          8.6184674365       -3.2807114654        0.4553156044
 C          6.2410564909       -4.0112987267       -0.5455598863
 H          6.3822995839       -3.5643605390       -1.5271105723
 H          5.2435571749       -4.4407096792       -0.4806832653
 H          6.9556013658       -4.8241035204       -0.4496666740
 C          6.3180636956       -3.7037917449        1.9231379492
 H          6.5576021367       -3.0513247426        2.7580461095
 H          6.9855824349       -4.5595569189        1.9666824179
 H          5.2971573248       -4.0595826167        2.0451556232
 C          0.1058464384        3.0556605907       -1.7266233696
 H          0.7088798080        3.2894676222       -2.6113250405
 H         -0.4590596460        3.9635178524       -1.4864194063
 H         -0.3656049592        2.1249028015       -4.1797145280
 C         -1.0346970983        1.6771940034       -3.4591548355
 C         -2.8060417479        0.5480669713       -1.6219717886
 C         -2.0091112848        0.8123043681       -3.9041931388
 C         -0.8980037247        2.0046919530       -2.1084011697
 C         -1.7893529462        1.4284450926       -1.1625873977
 C         -2.9223962064        0.2314940298       -2.9999924810
 C         -3.7320525325       -0.0034515965       -0.7086403469
 C         -5.6188935809       -1.0875113165        1.1344283907
 C         -4.7636879566       -0.8629925100       -1.1613300715
 C         -3.6574642974        0.3064673624        0.6697965550
 C         -4.6026359887       -0.2447895941        1.5634053366
 C         -5.6827639541       -1.3836587250       -0.2282486822
 H         -4.5134745865        0.0159912007        2.6057474834
 H         -6.4605623144       -2.0322167818       -0.6021188938
 C         -1.7358900945        1.7148597348        0.2222008296
 H         -0.9709279358        2.3792496939        0.5928418792
 C         -2.6339058438        1.1750032684        1.1062513549
 H         -2.5705103594        1.4201838237        2.1559672188
 C         -3.9512713119       -0.6337164590       -3.4313329297
 H         -4.0272353211       -0.8662713654       -4.4829526248
 C         -4.8489536407       -1.1662692373       -2.5387434465
 H         -5.6354471832       -1.8200328559       -2.8848199281
 C         -6.6490606957       -1.6837774119        2.0745429220
 C         -6.4220019712       -1.2723849418        3.5299766672
 H         -6.5017731087       -0.1947630325        3.6545249139
 H         -5.4528148743       -1.6102602803        3.8907276649
 H         -7.1834467930       -1.7316217517        4.1542738575
 C         -6.5752909211       -3.2159438571        1.9829098604
 H         -5.5810908321       -3.5670440075        2.2512737286
 H         -6.8105976536       -3.5768184423        0.9856440620
 H         -7.2902603399       -3.6543810419        2.6731382042
 C         -8.0423254798       -1.2019221491        1.6408087985
 H         -8.0966625492       -0.1158347819        1.6698763394
 H         -8.7907656649       -1.6000108970        2.3199572376
 H         -8.2925734773       -1.5319447106        0.6364072216
 H         -2.0915558342        0.5842472109       -4.9560219278
