77
       -105.32202666
 H          0.6319438328        4.6972354636        0.2982870597
 C          1.2446367959        3.8080263955        0.3322511947
 C          2.8700892293        1.5408160801        0.4109239741
 C          1.0632847531        2.8194350743       -0.6375754413
 C          2.1924642268        3.6905839245        1.3238137510
 C          3.0310607237        2.5583204135        1.3863977148
 C          1.8820955349        1.6576695646       -0.6038908920
 H          2.3108891868        4.4752279126        2.0555548615
 C          3.7230023997        0.4150812697        0.4435148489
 C          5.4629339421       -1.8437867460        0.4858340132
 C          3.6048602520       -0.6076684930       -0.5269078806
 C          4.7238991450        0.2999142007        1.4399867024
 C          5.5684740479       -0.8283544143        1.4379064468
 C          4.4785018699       -1.7170452508       -0.4846161490
 H          6.3217988527       -0.8895463642        2.2087115952
 H          4.3595605295       -2.4737513500       -1.2433597171
 C          4.0292595853        2.4230665749        2.3755665271
 H          4.1401928031        3.2052444417        3.1115300579
 C          4.8540765136        1.3253066372        2.4034021806
 H          5.6176336824        1.2393212834        3.1619117022
 C          1.7837482651        0.6164562890       -1.5571052687
 H          1.0405741571        0.6850143376       -2.3362767534
 C          2.6122070858       -0.4752234822       -1.5217413030
 H          2.5167656031       -1.2485580894       -2.2693182248
 C          6.4124136700       -3.0248907286        0.5495278413
 C          6.1681588666       -4.0345255898       -0.5729857360
 H          6.3175479650       -3.5826049797       -1.5510886354
 H          5.1675190303       -4.4575758818       -0.5159146718
 H          6.8764176353       -4.8529230856       -0.4780268221
 C          6.2199857736       -3.7362991690        1.8982004877
 H          5.1942247939       -4.0833329703        2.0037073369
 H          6.4517750742       -3.0866943812        2.7376001384
 H          6.8794013738       -4.5978421728        1.9501988896
 C          7.8539041365       -2.5056065186        0.4348528683
 H          7.9917753330       -1.9652424007       -0.4991431565
 H          8.5431378290       -3.3450392656        0.4488582064
 H          8.1161996986       -1.8450059381        1.2564501361
 C          0.0937092971        3.0848491008       -1.7541006104
 H          0.6886561501        3.3149406937       -2.6453319204
 H         -0.4661512362        3.9952802164       -1.5113336801
 H         -0.4287822737        2.1763177084       -4.2041102489
 C         -1.0814600193        1.7204369315       -3.4737537920
 C         -2.8083604958        0.5673916670       -1.6091382483
 C         -2.0620962851        0.8559717238       -3.9055881396
 C         -0.9169893627        2.0362214776       -2.1232311124
 C         -1.7870625731        1.4496857062       -1.1639346919
 C         -2.9524529657        0.2620054931       -2.9870807629
 C         -3.7109873135        0.0021285585       -0.6809288067
 C         -5.5487528673       -1.1123453152        1.1932617082
 C         -4.7456188554       -0.8616237583       -1.1185357294
 C         -3.6092637502        0.3015346586        0.6980788879
 C         -4.5309320326       -0.2640189447        1.6071071691
 C         -5.6393267784       -1.3983927437       -0.1700836383
 H         -4.4220186062       -0.0100861193        2.6492620990
 H         -6.4188411737       -2.0514999916       -0.5322897979
 C         -1.7072763451        1.7266708215        0.2214518575
 H         -0.9398286538        2.3943158953        0.5810831187
 C         -2.5832233070        1.1744083639        1.1197727840
 H         -2.5000273150        1.4126410617        2.1697017141
 C         -3.9849954781       -0.6060222733       -3.4036758297
 H         -4.0827108961       -0.8293601369       -4.4554951838
 C         -4.8588824692       -1.1532791031       -2.4964537401
 H         -5.6480374275       -1.8097609700       -2.8311427861
 C         -6.5514317319       -1.7272552238        2.1509156573
 C         -7.9611035075       -1.2694868685        1.7455525447
 H         -8.2253665973       -1.6013673407        0.7453905808
 H         -8.0343415525       -0.1846431682        1.7789105316
 H         -8.6889531532       -1.6826594558        2.4379500754
 C         -6.3040498203       -1.3151678479        3.6028534966
 H         -6.3961296187       -0.2388696392        3.7304634339
 H         -5.3242491187       -1.6404172816        3.9460640709
 H         -7.0480597431       -1.7856040469        4.2396977916
 C         -6.4517308102       -3.2576908289        2.0534208151
 H         -6.6967239491       -3.6195236147        1.0588077415
 H         -7.1471904584       -3.7108978250        2.7539506073
 H         -5.4470491918       -3.5915480983        2.3042129865
 H         -2.1664018637        0.6371915858       -4.9574418986
