77
       -105.32193741
 H          0.6697456010        4.7434266031        0.5009875431
 C          1.2680441496        3.8439054214        0.5005010517
 C          2.8530426052        1.5467288383        0.4936958486
 C          1.0697411509        2.8956746991       -0.5058034971
 C          2.2139819284        3.6731579243        1.4859741680
 C          3.0316307682        2.5240514142        1.5065242108
 C          1.8695719863        1.7201875531       -0.5173796332
 H          2.3462623487        4.4277833936        2.2463425403
 C          3.6835972197        0.4039655949        0.4858922532
 C          5.3750229027       -1.8914980850        0.4503035704
 C          3.5473962192       -0.5797495707       -0.5217706112
 C          4.6794766417        0.2320493988        1.4792348579
 C          5.5003581503       -0.9127857369        1.4378109309
 C          4.3967838214       -1.7085486156       -0.5173940454
 H          6.2510581449       -1.0169846953        2.2065541212
 H          4.2640654845       -2.4345989399       -1.3033118543
 C          4.0256548032        2.3333231541        2.4906841926
 H          4.1508677825        3.0858488448        3.2547352591
 C          4.8284591396        1.2190457416        2.4793474912
 H          5.5886544428        1.0902374258        3.2351636481
 C          1.7553790216        0.7189130433       -1.5106624620
 H          1.0177886656        0.8328054626       -2.2899881040
 C          2.5618392135       -0.3896012533       -1.5143241560
 H          2.4543306289       -1.1317152247       -2.2913229335
 C          6.2990513880       -3.0940893955        0.4731189410
 C          6.0985613912       -3.8432189803        1.7999216585
 H          5.0661401219       -4.1713910065        1.9007710305
 H          6.3490766626       -3.2259255860        2.6580889528
 H          6.7394137872       -4.7199602451        1.8207815077
 C          7.7503441176       -2.6008514351        0.3666998835
 H          8.0289721606       -1.9696550673        1.2058754540
 H          7.8951978103       -2.0363669521       -0.5518498346
 H          8.4225071848       -3.4540224773        0.3530876350
 C          6.0283293773       -4.0631939126       -0.6786962951
 H          5.0179083303       -4.4636708406       -0.6312972866
 H          6.7170458320       -4.9007166782       -0.6105147319
 H          6.1863066309       -3.5858766220       -1.6432736073
 C          0.1026825267        3.2198313901       -1.6084699373
 H          0.7000646584        3.4976427297       -2.4845539514
 H         -0.4571521954        4.1168444283       -1.3194077217
 H         -0.4432927793        2.4808683472       -4.1078774207
 C         -1.0856543309        1.9717175319       -3.4041450955
 C         -2.7831130082        0.6789039359       -1.6051576877
 C         -2.0656699962        1.1325285977       -3.8842072695
 C         -0.9079329577        2.1943325203       -2.0366936281
 C         -1.7645668377        1.5379502487       -1.1109379084
 C         -2.9405960097        0.4684972132       -2.9993585024
 C         -3.6693923698        0.0414112661       -0.7085342447
 C         -5.4721841265       -1.2220023175        1.1040283559
 C         -4.7006065608       -0.8008108646       -1.1936524104
 C         -3.5541516914        0.2452318348        0.6867407774
 C         -4.4584719108       -0.3930376472        1.5645069043
 C         -5.5768817749       -1.4126023270       -0.2749140763
 H         -4.3394544264       -0.2113701454        2.6205653242
 H         -6.3541603460       -2.0472327540       -0.6729830920
 C         -1.6729052658        1.7211740004        0.2891356699
 H         -0.9092583120        2.3724025092        0.6854686341
 C         -2.5328768484        1.0989532821        1.1565791741
 H         -2.4406233025        1.2658717382        2.2194275807
 C         -3.9703838119       -0.3781389844       -3.4638813583
 H         -4.0789027235       -0.5281771879       -4.5275823277
 C         -4.8280022955       -0.9963919350       -2.5872420963
 H         -5.6149759591       -1.6358853821       -2.9580089256
 C         -6.4562967414       -1.9140718331        2.0276931995
 C         -7.8755243032       -1.4444922867        1.6723566931
 H         -8.1484652946       -1.7068307401        0.6540311737
 H         -7.9597028682       -0.3657273643        1.7843036185
 H         -8.5904888408       -1.9144268615        2.3415933368
 C         -6.1948683121       -1.6027293152        3.5020984013
 H         -6.2963414844       -0.5392189382        3.7065633197
 H         -5.2075364348       -1.9404985334        3.8098252387
 H         -6.9259790094       -2.1251495773        4.1128229760
 C         -6.3421994918       -3.4326296381        1.8212118408
 H         -6.5950040466       -3.7260830415        0.8062440129
 H         -7.0248850481       -3.9416787064        2.4954643900
 H         -5.3313561116       -3.7723501216        2.0369213423
 H         -2.1806596153        0.9865995115       -4.9475054691
