77
       -105.32193598
 H          0.4428961333        4.3686173863        0.6787189130
 C          1.1170730869        3.5244518043        0.6518132321
 C          2.9187755278        1.3959341132        0.5670243208
 C          1.0422954512        2.6266281292       -0.4147145871
 C          2.0412902300        3.3809467420        1.6626288547
 C          2.9696772537        2.3199527593        1.6421738168
 C          1.9461771965        1.5305576484       -0.4605621640
 H          2.0754390637        4.0956744313        2.4708480966
 C          3.8681913023        0.3511455507        0.5125653526
 C          5.8181282167       -1.7249749324        0.3672957780
 C          3.8611207304       -0.5748361779       -0.5571929977
 C          4.8581239606        0.2258194841        1.5186276837
 C          5.8084635648       -0.8107050316        1.4220286910
 C          4.8371054658       -1.5951905460       -0.6063710567
 H          6.5518621080       -0.8806106511        2.2016999787
 H          4.8011409726       -2.2789599695       -1.4392332365
 C          3.9532722557        2.1698204870        2.6439911626
 H          3.9768517930        2.8778648236        3.4587803068
 C          4.8738815584        1.1525020134        2.5851075570
 H          5.6265156272        1.0564650165        3.3532667061
 C          1.9518683655        0.5782452165       -1.5076398621
 H          1.2144548380        0.6526866857       -2.2909698710
 C          2.8734993725       -0.4358146672       -1.5559590457
 H          2.8571608360       -1.1399227461       -2.3745148414
 C          6.8846815464       -2.8026567927        0.3268194145
 C          6.7690780096       -3.6608558093        1.5963852460
 H          5.7840570480       -4.1184787415        1.6593312605
 H          6.9369553585       -3.0789888540        2.4982990707
 H          7.5123444477       -4.4523677122        1.5667802948
 C          8.2631984433       -2.1252088872        0.2795197210
 H          8.4495348378       -1.5182296133        1.1611212553
 H          8.3461630955       -1.4898359025       -0.5995879535
 H          9.0381437890       -2.8845284604        0.2268546894
 C          6.7491378000       -3.7160836510       -0.8923151254
 H          5.7970353991       -4.2423697692       -0.8900447140
 H          7.5375392918       -4.4632888420       -0.8685863598
 H          6.8544306887       -3.1571570582       -1.8195664810
 C          0.0962216522        2.9303474075       -1.5435543070
 H          0.7088209135        3.1924610990       -2.4129066209
 H         -0.4742164135        3.8269697520       -1.2779334838
 H         -0.2472120690        1.9633693849       -4.0088178483
 C         -0.9638350508        1.5401695159       -3.3194955669
 C         -2.8732017793        0.4879449573       -1.5783833284
 C         -1.9315865615        0.6881406311       -3.8092871693
 C         -0.9001611114        1.8878794572       -1.9714326360
 C         -1.8598775265        1.3453419649       -1.0705269534
 C         -2.9133113225        0.1497619281       -2.9552898931
 C         -3.8728032613       -0.0168952098       -0.7167393646
 C         -5.9194371416       -0.9962392253        1.0120543804
 C         -4.9039238441       -0.8505408006       -1.2184797454
 C         -3.8738395671        0.3172757878        0.6571803084
 C         -4.8971186397       -0.1807591390        1.4914865196
 C         -5.9036321858       -1.3221739990       -0.3401259241
 H         -4.8711178364        0.0956799147        2.5347221738
 H         -6.6732425033       -1.9524404331       -0.7561980283
 C         -1.8777528867        1.6486577260        0.3108424512
 H         -1.1112718077        2.2872129501        0.7202410544
 C         -2.8472310448        1.1544624931        1.1454872987
 H         -2.8381945675        1.4126636257        2.1939806368
 C         -3.9407181156       -0.6930441436       -3.4348619138
 H         -3.9575146360       -0.9447559300       -4.4847087587
 C         -4.9102550458       -1.1785880977       -2.5919122679
 H         -5.6945657028       -1.8135407279       -2.9758582566
 C         -6.9954294695       -1.4865190335        1.9629866208
 C         -7.7181786850       -0.2666768516        2.5547850280
 H         -8.1668273301        0.3314557651        1.7647330349
 H         -7.0450079412        0.3667314091        3.1260522189
 H         -8.5089770952       -0.6008629594        3.2201965167
 C         -6.3313166218       -2.2970714441        3.0866769578
 H         -5.7858795206       -3.1437625673        2.6754007569
 H         -7.0949210954       -2.6775717932        3.7588920114
 H         -5.6422873448       -1.6934167441        3.6710148673
 C         -8.0298823659       -2.3753172440        1.2702744183
 H         -8.5535786787       -1.8356528235        0.4844408638
 H         -8.7711708189       -2.6946896987        1.9976605088
 H         -7.5703855297       -3.2697448281        0.8553816480
 H         -1.9550602997        0.4441979044       -4.8606025077
