77
       -105.32192849
 H          0.5363865622        4.5614514021        0.4453552809
 C          1.1797878345        3.6935627356        0.4608961694
 C          2.8902303434        1.4891277758        0.4894080836
 C          1.0442718204        2.7278596213       -0.5387580029
 C          2.1240079709        3.5841351819        1.4570098147
 C          3.0083493000        2.4862110056        1.4916445564
 C          1.9006222487        1.5931763781       -0.5253818827
 H          2.2071179322        4.3518981030        2.2111974514
 C          3.7893137458        0.3993934096        0.4937666782
 C          5.6323933263       -1.7766587203        0.4695526661
 C          3.7124080079       -0.6031526764       -0.5015903259
 C          4.7975277592        0.3029280173        1.4848185131
 C          5.6946794589       -0.7835194300        1.4485230960
 C          4.6353064775       -1.6727530509       -0.4906879500
 H          6.4541577324       -0.8296147413        2.2143353886
 H          4.5451552304       -2.4161394699       -1.2663862998
 C          4.0112465471        2.3669087468        2.4781897949
 H          4.0879877418        3.1323805788        3.2357662854
 C          4.8841005788        1.3066197896        2.4755522846
 H          5.6524078168        1.2343118321        3.2306822181
 C          1.8401675032        0.5691347520       -1.5002126720
 H          1.0909830814        0.6237623725       -2.2744644758
 C          2.7110180826       -0.4897022350       -1.4899103334
 H          2.6435958247       -1.2502007578       -2.2535432399
 C          6.6435033599       -2.9070611242        0.4911700749
 C          6.5262240384       -3.6517887662        1.8301847798
 H          5.5225453930       -4.0517600853        1.9579215611
 H          6.7508352146       -3.0080463702        2.6759313749
 H          7.2286219807       -4.4801721796        1.8459590935
 C          8.0505613702       -2.3055495300        0.3505102055
 H          8.1366705258       -1.7500430563       -0.5808520723
 H          8.7866672735       -3.1042679357        0.3415234906
 H          8.2919346798       -1.6375536139        1.1726628086
 C          6.4265404850       -3.9092892024       -0.6435139888
 H          5.4497671624       -4.3830439099       -0.5728946915
 H          7.1770270111       -4.6921142325       -0.5773297165
 H          6.5321081383       -3.4350070915       -1.6167146568
 C          0.0888982003        2.9986623122       -1.6670075188
 H          0.6968662978        3.2445405021       -2.5449635749
 H         -0.4823967968        3.9007006550       -1.4205778487
 H         -0.3308434088        2.0580859304       -4.1273105821
 C         -1.0177250524        1.6178120163       -3.4189491415
 C         -2.8404945976        0.5096999848       -1.6198954537
 C         -1.9912181593        0.7587632247       -3.8833071107
 C         -0.9077455013        1.9478778651       -2.0688700413
 C         -1.8241670169        1.3790617111       -1.1394755324
 C         -2.9295236483        0.1912789547       -2.9993206412
 C         -3.7938245271       -0.0282583827       -0.7265499542
 C         -5.7422217693       -1.0830757522        1.0694427950
 C         -4.8271925021       -0.8759542600       -1.1992727517
 C         -3.7448465740        0.2848138794        0.6514802114
 C         -4.7199794205       -0.2509749049        1.5193463287
 C         -5.7779790559       -1.3846347276       -0.2880990589
 H         -4.6562213294        0.0091335219        2.5651525613
 H         -6.5511557500       -2.0244320337       -0.6824462210
 C         -1.7939051075        1.6651080318        0.2452173695
 H         -1.0260554538        2.3169379338        0.6316697989
 C         -2.7183291057        1.1387392582        1.1105615176
 H         -2.6734152873        1.3833780662        2.1613711396
 C         -3.9596632498       -0.6634982472       -3.4504831930
 H         -4.0149270313       -0.8987914764       -4.5028141098
 C         -4.8839917353       -1.1817953851       -2.5766928552
 H         -5.6707868730       -1.8264448850       -2.9388265514
 C         -6.7618481757       -1.6190269742        2.0571632927
 C         -7.8098431833       -2.5126310500        1.3914028885
 H         -7.3529369655       -3.3870982679        0.9333282805
 H         -8.3806373550       -1.9652748092        0.6446290583
 H         -8.5093580798       -2.8649614143        2.1444746333
 C         -7.4805855631       -0.4312567498        2.7150537249
 H         -7.9760025408        0.1791510960        1.9632098100
 H         -6.7950975235        0.1999448641        3.2740244899
 H         -8.2339835018       -0.8000147270        3.4051401339
 C         -6.0266493561       -2.4431136549        3.1255748822
 H         -6.7477948509       -2.8539690659        3.8261886807
 H         -5.3193653942       -1.8400383616        3.6884034230
 H         -5.4878277069       -3.2692244975        2.6664104778
 H         -2.0518537106        0.5290130455       -4.9362979699
