77
       -105.32190766
 H          0.6836111990        4.7795878830        0.1547736856
 C          1.2780600111        3.8796510321        0.2167312059
 C          2.8521776326        1.5800810203        0.3701362458
 C          1.0725740338        2.8630270404       -0.7188862319
 C          2.2259424504        3.7750777511        1.2095435957
 C          3.0378168594        2.6261121806        1.3104773211
 C          1.8676368193        1.6862925182       -0.6491634909
 H          2.3637404443        4.5813046180        1.9139064821
 C          3.6764019113        0.4350196064        0.4428230943
 C          5.3519208135       -1.8687523971        0.5718402538
 C          3.5331364706       -0.6172642693       -0.4919476782
 C          4.6725687105        0.3285199176        1.4450103531
 C          5.4856272355       -0.8219093788        1.4856276667
 C          4.3747831772       -1.7486551488       -0.4067479201
 H          6.2367150489       -0.8754401822        2.2591751818
 H          4.2366324525       -2.5282491025       -1.1385792690
 C          4.0327704765        2.5007137818        2.3041387811
 H          4.1637301284        3.3053114332        3.0121073676
 C          4.8291436282        1.3837996270        2.3715356510
 H          5.5898662950        1.3049450393        3.1336580275
 C          1.7474372823        0.6181384566       -1.5693794688
 H          1.0100701845        0.6808057936       -2.3546912865
 C          2.5480071996       -0.4921718503       -1.4951949958
 H          2.4359280857       -1.2866440610       -2.2178796261
 C          6.2657658680       -3.0742575608        0.6825237960
 C          5.9838061623       -4.1242788392       -0.3931581061
 H          4.9697506881       -4.5104360211       -0.3145804015
 H          6.6648193595       -4.9608105538       -0.2633062751
 H          6.1443388259       -3.7221403593       -1.3909957082
 C          6.0619446845       -3.7205079388        2.0619065765
 H          5.0262443581       -4.0282076770        2.1900455199
 H          6.3229805422       -3.0442880655        2.8711159748
 H          6.6927881289       -4.6007290495        2.1458674658
 C          7.7210054017       -2.6032063291        0.5370834949
 H          8.0059876672       -1.9108861918        1.3243167188
 H          7.8693650893       -2.1132441717       -0.4227365467
 H          8.3858848721       -3.4605741444        0.5895309406
 C          0.1020164740        3.1113975935       -1.8379928032
 H          0.6964000783        3.3258050665       -2.7337172301
 H         -0.4549318067        4.0277428186       -1.6105135381
 H         -0.4590498172        2.2036626863       -4.2776326731
 C         -1.0973169582        1.7441722223       -3.5369714806
 C         -2.7833108332        0.5770830720       -1.6436796347
 C         -2.0794241743        0.8736462966       -3.9526249350
 C         -0.9120529536        2.0603483333       -2.1890894650
 C         -1.7635710911        1.4695817054       -1.2156243956
 C         -2.9483586688        0.2710983907       -3.0191806698
 C         -3.6628915313        0.0009471708       -0.7001551785
 C         -5.4480524229       -1.1436963482        1.2063340955
 C         -4.6946198016       -0.8749983747       -1.1200887482
 C         -3.5399644900        0.3002221900        0.6771340805
 C         -4.4357343588       -0.2804500567        1.6023716315
 C         -5.5624207626       -1.4260888343       -0.1560010445
 H         -4.3109723240       -0.0265085510        2.6427441136
 H         -6.3406461074       -2.0879020691       -0.5049196745
 C         -1.6654380847        1.7501473898        0.1677896660
 H         -0.9019698232        2.4296292501        0.5138258481
 C         -2.5190599868        1.1874907337        1.0809737619
 H         -2.4217828147        1.4280880823        2.1291477100
 C         -3.9793734046       -0.6067642269       -3.4184227207
 H         -4.0940669625       -0.8292631014       -4.4687025577
 C         -4.8302644184       -1.1652605698       -2.4962864530
 H         -5.6179075473       -1.8301843740       -2.8176008105
 C         -6.4205339370       -1.7783780841        2.1820676785
 C         -6.1463098644       -1.3720518440        3.6308111591
 H         -6.8675776491       -1.8590118526        4.2812473040
 H         -6.2529232705       -0.2983428230        3.7683212325
 H         -5.1535913782       -1.6834793681        3.9488850285
 C         -6.3016587229       -3.3066142890        2.0724829727
 H         -6.9750927023       -3.7739240751        2.7851641914
 H         -5.2871217767       -3.6278493152        2.2989666084
 H         -6.5635068128       -3.6658446866        1.0812341126
 C         -7.8451309365       -1.3380114523        1.8111595840
 H         -7.9329970558       -0.2546093755        1.8541992760
 H         -8.5515399964       -1.7665329775        2.5163172508
 H         -8.1265293567       -1.6665278216        0.8145712145
 H         -2.2002452366        0.6548429353       -5.0026950880
