77
       -105.32186406
 H          0.7104859474        4.7843221761       -0.4104273002
 C          1.3011544165        3.8799011114       -0.3962801013
 C          2.8640024999        1.5679601211       -0.3543877128
 C          1.0508962052        2.9194317237        0.5865760901
 C          2.2885690635        3.7150023694       -1.3412118939
 C          3.0960288706        2.5585129329       -1.3432575309
 C          1.8399735800        1.7369428519        0.6164233294
 H          2.4606911872        4.4792721499       -2.0837620907
 C          3.6808388966        0.4155687415       -0.3297466942
 C          5.3357749487       -1.9058290659       -0.2669400079
 C          3.4903583325       -0.5826126551        0.6546005076
 C          4.7161214691        0.2474116323       -1.2826453662
 C          5.5188025200       -0.9097011793       -1.2276814316
 C          4.3223353679       -1.7242619418        0.6640707675
 H          6.3013496301       -1.0099937643       -1.9645215475
 H          4.1468673218       -2.4618796863        1.4305928974
 C          4.1305531290        2.3726949157       -2.2857237346
 H          4.2972157362        3.1360319525       -3.0308993811
 C          4.9201215376        1.2492644327       -2.2579629750
 H          5.7111713534        1.1239566253       -2.9820384467
 C          1.6751394905        0.7233946852        1.5899285700
 H          0.9086759565        0.8352869758        2.3411727172
 C          2.4679392489       -0.3947323745        1.6095585290
 H          2.3204574015       -1.1466584930        2.3703961004
 C          6.2384470285       -3.1247104419       -0.2774592168
 C          6.0924327330       -3.8336692351       -1.6331095027
 H          6.4029411413       -3.2007639340       -2.4596671643
 H          5.0597107979       -4.1340130557       -1.7976325214
 H          6.7132734968       -4.7248705280       -1.6441009960
 C          5.8924986976       -4.1198115322        0.8312566094
 H          4.8769171355       -4.4951140775        0.7244439618
 H          6.0147383974       -3.6744473510        1.8160491981
 H          6.5653525903       -4.9706983800        0.7705656216
 C          7.6908185134       -2.6618210188       -0.0845933645
 H          8.3472278896       -3.5271226476       -0.0678686970
 H          7.8000468130       -2.1309913832        0.8585937908
 H          8.0199101470       -2.0079147152       -0.8873342969
 C          0.0372307876        3.2367033001        1.6486421126
 H         -0.5092119956        4.1361565633        1.3419927187
 H          0.5965166985        3.5085085635        2.5514285807
 H         -0.6211498588        2.4870834851        4.1174050658
 C         -1.2289815273        1.9787470191        3.3831012301
 C         -2.8357309175        0.6851399989        1.5030837382
 C         -2.2251995194        1.1322487970        3.8144199109
 C         -0.9905999904        2.2086023627        2.0260666326
 C         -1.8026258284        1.5543196240        1.0594702313
 C         -3.0542869117        0.4663830816        2.8877474555
 C         -3.6747918952        0.0445061845        0.5642772352
 C         -5.3754895990       -1.2338942343       -1.3343053392
 C         -4.7180480444       -0.8107141292        0.9982046380
 C         -3.4986758004        0.2568610330       -0.8233491830
 C         -4.3538068499       -0.3883636260       -1.7442866163
 C         -5.5426950766       -1.4300163549        0.0376851074
 H         -4.1895212762       -0.1994581399       -2.7929788733
 H         -6.3298184065       -2.0755147637        0.3970475544
 C         -1.6516881796        1.7485024757       -0.3339785633
 H         -0.8782005607        2.4101803983       -0.6921682546
 C         -2.4669042713        1.1243703504       -1.2423135087
 H         -2.3300002233        1.2997028061       -2.2989754825
 C         -4.0971017686       -0.3906926276        3.3012217695
 H         -4.2531432657       -0.5459903328        4.3582356474
 C         -4.9076357122       -1.0131716132        2.3837166217
 H         -5.7045954814       -1.6616658821        2.7154631304
 C         -6.3019872382       -1.9406124338       -2.3052514409
 C         -6.1633824681       -3.4573555491       -2.0996644194
 H         -5.1365119031       -3.7735509360       -2.2710025016
 H         -6.8036642042       -3.9782624162       -2.8057055377
 H         -6.4545757306       -3.7608490863       -1.0979874914
 C         -5.9797362045       -1.6160112339       -3.7646709595
 H         -4.9727286317       -1.9321851793       -4.0284684563
 H         -6.0933170541       -0.5536202073       -3.9685812880
 H         -6.6713462700       -2.1496805658       -4.4106573262
 C         -7.7462521236       -1.5046434567       -2.0142945447
 H         -8.0614578524       -1.7808537723       -1.0120033593
 H         -8.4182487873       -1.9847750659       -2.7198421212
 H         -7.8488458328       -0.4271532422       -2.1229283179
 H         -2.3873596568        0.9805105337        4.8707293540
