77
       -105.32186020
 H          0.3884884744        4.3018387836        0.3028486545
 C          1.0859277235        3.4772838121        0.3441437940
 C          2.9542012791        1.4072832660        0.4259849259
 C          1.0310581485        2.4879545762       -0.6390485952
 C          2.0221063201        3.4514905216        1.3540728216
 C          2.9854245598        2.4239396272        1.4147301749
 C          1.9665802264        1.4185811173       -0.5960981362
 H          2.0401462507        4.2353525141        2.0960187505
 C          3.9386177633        0.3941807138        0.4501606527
 C          5.9610165793       -1.6168908143        0.4568759492
 C          3.9506708187       -0.6234708061       -0.5327413468
 C          4.9451051744        0.3929581964        1.4475660563
 C          5.9313189962       -0.6140490488        1.4273078142
 C          4.9623601755       -1.6093648709       -0.5075036917
 H          6.6863048271       -0.5889018092        2.1985358030
 H          4.9398126693       -2.3658004868       -1.2754908809
 C          3.9850344485        2.3961313023        2.4116583945
 H          3.9927965117        3.1733969824        3.1610328306
 C          4.9407648847        1.4101600503        2.4281737106
 H          5.7057771905        1.4084695978        3.1900857057
 C          1.9901778808        0.3747672745       -1.5517528474
 H          1.2391146236        0.3519381785       -2.3249977443
 C          2.9449677799       -0.6089889874       -1.5229131809
 H          2.9411568033       -1.3853483546       -2.2734643702
 C          7.0655239633       -2.6557868890        0.4941759035
 C          6.9514159386       -3.6736814792       -0.6415625903
 H          7.0237138272       -3.1915246942       -1.6139934645
 H          6.0208370215       -4.2337995392       -0.5806738020
 H          7.7687506722       -4.3856353698       -0.5670539057
 C          6.9916840539       -3.4061987828        1.8333701799
 H          6.0227263579       -3.8874057171        1.9483150354
 H          7.1504077586       -2.7443952679        2.6801420644
 H          7.7598540602       -4.1736510236        1.8608519586
 C          8.4189057693       -1.9381828372        0.3730839678
 H          8.4719818054       -1.3782398760       -0.5581015484
 H          9.2195532253       -2.6722778009        0.3765872807
 H          8.5917590127       -1.2516916225        1.1972329195
 C          0.0739774724        2.6672381554       -1.7859815004
 H          0.6787191247        2.8390050245       -2.6827236017
 H         -0.4991439791        3.5837096842       -1.6099253773
 H         -0.2334322166        1.3932537731       -4.1145393755
 C         -0.9636202534        1.0643893784       -3.3888207439
 C         -2.9161211338        0.2605748218       -1.5655932101
 C         -1.9302365752        0.1630018716       -3.7838554083
 C         -0.9202317475        1.5809527364       -2.0954289358
 C         -1.9002713656        1.1638218180       -1.1506788228
 C         -2.9342315179       -0.2516925446       -2.8880820342
 C         -3.9410332575       -0.1152196201       -0.6684707674
 C         -6.0463996685       -0.8229184043        1.1213054695
 C         -4.9762179723       -0.9912847358       -1.0818745713
 C         -3.9645277781        0.3938147909        0.6504816011
 C         -5.0166057237        0.0276170697        1.5166997685
 C         -6.0052362888       -1.3258661035       -0.1748869134
 H         -5.0076283333        0.4367042731        2.5157145091
 H         -6.7775066930       -1.9925657792       -0.5238624342
 C         -1.9370183948        1.6375328776        0.1815814785
 H         -1.1653798684        2.3082703747        0.5239802665
 C         -2.9309962541        1.2681018897        1.0513468486
 H         -2.9365251680        1.6558628962        2.0591699601
 C         -3.9635659793       -1.1380041486       -3.2767597890
 H         -3.9620070906       -1.5247406488       -4.2848603643
 C         -4.9582018272       -1.4966928419       -2.4002879254
 H         -5.7442087899       -2.1661483921       -2.7161829601
 C         -7.1576573195       -1.1591026228        2.0982787691
 C         -8.1975823447       -2.1081834792        1.5001555479
 H         -7.7518031230       -3.0601572810        1.2204222049
 H         -8.6868776541       -1.6658512950        0.6352708302
 H         -8.9650924874       -2.3109421710        2.2420676931
 C         -7.8629399331        0.1447020329        2.5027597399
 H         -8.6789536965       -0.0800854976        3.1835000207
 H         -8.2754106451        0.6426726237        1.6279813159
 H         -7.1880988027        0.8329671746        3.0044239934
 C         -6.5435205872       -1.8278295905        3.3377450770
 H         -6.0119885021       -2.7348566983        3.0579404568
 H         -7.3333690249       -2.0963898688        4.0332785476
 H         -5.8522998487       -1.1683463551        3.8553313795
 H         -1.9371165240       -0.2133134565       -4.7956254349
