77
       -105.32181340
 H          0.3340782027        4.1497090565        0.4825359061
 C          1.0546917983        3.3443471878        0.4993251866
 C          2.9939253635        1.3395336197        0.5127964700
 C          1.0360189218        2.3901330416       -0.5188439639
 C          1.9868580385        3.3124073966        1.5131042382
 C          2.9868411721        2.3192830189        1.5384879573
 C          2.0053140809        1.3503692450       -0.5083635627
 H          1.9754596853        4.0687020619        2.2832729371
 C          4.0187251420        0.3670870292        0.4979821692
 C          6.1331810730       -1.5452469361        0.4147972984
 C          4.0693015786       -0.6121752058       -0.5219657063
 C          5.0290501542        0.3717454225        1.4914843556
 C          6.0616343157       -0.5856907164        1.4259145400
 C          5.1258000831       -1.5500518959       -0.5405518561
 H          6.8198568891       -0.5554404638        2.1937832480
 H          5.1317307357       -2.2778684817       -1.3360230936
 C          3.9874622411        2.2928567115        2.5345772829
 H          3.9640382679        3.0395476012        3.3141053193
 C          4.9837123142        1.3480428162        2.5118267402
 H          5.7499927800        1.3487595398        3.2724679780
 C          2.0633396296        0.3387646919       -1.4966628946
 H          1.3076974399        0.3095299142       -2.2649616045
 C          3.0564172343       -0.6067748722       -1.5048334486
 H          3.0783807494       -1.3580501813       -2.2801998147
 C          7.2930002221       -2.5225603754        0.3971754958
 C          7.2906731892       -3.3221564304        1.7093720407
 H          8.1023633647       -4.0438040087        1.6944382303
 H          6.3538916697       -3.8630966138        1.8249807295
 H          7.4288477469       -2.6828112040        2.5767069943
 C          8.6002582168       -1.7234417102        0.2765266789
 H          8.6019235204       -1.1299090665       -0.6351906522
 H          9.4419315913       -2.4091023349        0.2396531758
 H          8.7491366658       -1.0563112888        1.1210766221
 C          7.2138836206       -3.5053358351       -0.7719736606
 H          6.3151568515       -4.1158066599       -0.7170226130
 H          8.0687141552       -4.1749302496       -0.7346982483
 H          7.2445805829       -2.9869752184       -1.7278509313
 C          0.0841381458        2.5824701462       -1.6690762632
 H          0.6932053094        2.7624228475       -2.5609503432
 H         -0.4891175801        3.4968765715       -1.4846583271
 H         -0.1565301287        1.2745324866       -3.9884618179
 C         -0.9137668027        0.9627141723       -3.2830984742
 C         -2.9430712504        0.2189734593       -1.5199017617
 C         -1.8756529371        0.0682034492       -3.6981942408
 C         -0.9093328852        1.4994633347       -1.9948986289
 C         -1.9256803905        1.1091538066       -1.0808951817
 C         -2.9206148183       -0.3156637340       -2.8335469462
 C         -4.0107897319       -0.1185367933       -0.6584244333
 C         -6.2077658678       -0.7287627135        1.0549661024
 C         -5.0480479458       -0.9766288370       -1.1006772057
 C         -4.0769914034        0.4133191562        0.6509908522
 C         -5.1747070086        0.0948709171        1.4815099148
 C         -6.1211265875       -1.2617913947       -0.2321288594
 H         -5.1913926731        0.5230794969        2.4708959003
 H         -6.8987082316       -1.9155577893       -0.5973604113
 C         -2.0017094849        1.5992646259        0.2448049097
 H         -1.2262237006        2.2532998663        0.6094915268
 C         -3.0368945938        1.2655360983        1.0798664030
 H         -3.0711370886        1.6663781831        2.0819855435
 C         -3.9498217051       -1.1890665072       -3.2483214803
 H         -3.9146690897       -1.5953089804       -4.2480668251
 C         -4.9873385123       -1.5096280751       -2.4077920167
 H         -5.7744215078       -2.1680359149       -2.7435891508
 C         -7.4099849868       -1.0604081456        1.9182750497
 C         -7.4779467750       -2.5832038752        2.1126837591
 H         -6.5703349062       -2.9479945719        2.5888265162
 H         -7.6083948932       -3.1089392968        1.1710191413
 H         -8.3214160657       -2.8288562994        2.7514718701
 C         -8.6763003148       -0.5702284425        1.1984560659
 H         -8.6269294475        0.5030454111        1.0277087151
 H         -9.5466195249       -0.7787706910        1.8140535922
 H         -8.8178096807       -1.0642951657        0.2411976755
 C         -7.3447820274       -0.3962079467        3.2943557877
 H         -6.4771200369       -0.7335581271        3.8571591447
 H         -8.2303731472       -0.6650774150        3.8634948039
 H         -7.3255494230        0.6881740679        3.2100873654
 H         -1.8518985511       -0.3249179485       -4.7032622012
