77
       -105.32181470
 H          0.3619280378        4.2488524918        0.4932123882
 C          1.0651175047        3.4282431039        0.5070919821
 C          2.9514702462        1.3732329009        0.5190956261
 C          1.0305490968        2.4830888006       -0.5194755494
 C          1.9885626994        3.3645768492        1.5270600590
 C          2.9605152921        2.3437831293        1.5535499148
 C          1.9751667904        1.4209619077       -0.5127324585
 H          1.9904443783        4.1144347920        2.3035660725
 C          3.9474135576        0.3712592871        0.5076032046
 C          6.0006224927       -1.6069916271        0.4371236756
 C          3.9824137486       -0.5992279232       -0.5213808612
 C          4.9435861877        0.3358424868        1.5146568337
 C          5.9454784885       -0.6539977925        1.4554992727
 C          5.0088203034       -1.5700275721       -0.5336253626
 H          6.6928547878       -0.6549147823        2.2345088007
 H          5.0038948879       -2.2898785107       -1.3363105618
 C          3.9481562824        2.2797331203        2.5607078806
 H          3.9379850397        3.0208332015        3.3458387175
 C          4.9151793127        1.3048875939        2.5425044204
 H          5.6712631747        1.2758809873        3.3127294363
 C          2.0194720500        0.4209730539       -1.5134958209
 H          1.2758765627        0.4241499044       -2.2941764071
 C          2.9854585347       -0.5521957909       -1.5193424003
 H          2.9978920436       -1.2939515380       -2.3040226417
 C          7.1267032141       -2.6230723653        0.4292900453
 C          7.0716921570       -3.4360529544        1.7321315956
 H          6.1157837043       -3.9475400299        1.8226802232
 H          7.2123390679       -2.8106077770        2.6091704523
 H          7.8598909033       -4.1834039498        1.7254834698
 C          8.4627729148       -1.8686564984        0.3419760506
 H          8.5014683040       -1.2645100587       -0.5619096293
 H          9.2806920899       -2.5827716183        0.3111828041
 H          8.6195899412       -1.2175175675        1.1974742754
 C          7.0358070862       -3.5899190189       -0.7522039036
 H          7.8669759470       -4.2882311502       -0.7075461289
 H          7.1009291702       -3.0624651646       -1.7013543488
 H          6.1163586354       -4.1704375599       -0.7201157589
 C          0.0854195373        2.7042385990       -1.6691414630
 H          0.6988531013        2.9096579754       -2.5527027246
 H         -0.4910432352        3.6126582314       -1.4648597910
 H         -0.1875239966        1.5054342563       -4.0422241724
 C         -0.9280373726        1.1536338584       -3.3380100435
 C         -2.9098623918        0.2961882376       -1.5718888506
 C         -1.8891617402        0.2663248297       -3.7761968845
 C         -0.9037620537        1.6284684654       -2.0283194484
 C         -1.8980917987        1.1821901575       -1.1122599312
 C         -2.9079831961       -0.1740661954       -2.9099923849
 C         -3.9509792686       -0.1031475909       -0.7040836072
 C         -6.0941075691       -0.8488099985        1.0243434016
 C         -4.9834406214       -0.9598767356       -1.1623756091
 C         -3.9940904465        0.3637386295        0.6298664291
 C         -5.0639292219       -0.0215404475        1.4654528006
 C         -6.0317030123       -1.3136274980       -0.2851591588
 H         -5.0690041309        0.3545193718        2.4773895946
 H         -6.8019355550       -1.9637059144       -0.6683216999
 C         -1.9532819405        1.6110580329        0.2344776981
 H         -1.1838619475        2.2656495903        0.6111593107
 C         -2.9623195174        1.2178874201        1.0760066192
 H         -2.9817414698        1.5718240127        2.0960256447
 C         -3.9332329311       -1.0445447169       -3.3428419665
 H         -3.9155058628       -1.4007341278       -4.3619815664
 C         -4.9443293326       -1.4252913582       -2.4949842801
 H         -5.7274420181       -2.0811929476       -2.8446894972
 C         -7.2282443451       -1.2016334136        1.9685782407
 C         -6.6473339695       -1.9229984822        3.1944756786
 H         -5.9532702328       -1.2940840962        3.7452266837
 H         -6.1273727425       -2.8296714488        2.8927349656
 H         -7.4536224384       -2.2002421925        3.8673631348
 C         -8.2712419952       -2.1122571679        1.3183416352
 H         -9.0574096268       -2.3257184955        2.0373600280
 H         -7.8360932974       -3.0622799503        1.0162599955
 H         -8.7346406843       -1.6330451265        0.4588242709
 C         -7.9212512214        0.0980893250        2.4061419981
 H         -8.7547005050       -0.1377231566        3.0615605986
 H         -8.3075736329        0.6342021019        1.5420185978
 H         -7.2465368654        0.7565794876        2.9464001261
 H         -1.8808378221       -0.0776371010       -4.7994122005
