77
       -105.32177817
 H          0.6196682150        4.6948663826        0.6305014376
 C          1.2330345835        3.8245668626        0.4473472371
 C          2.8581408837        1.6027476079       -0.0115282333
 C          1.0162740890        2.6687929727        1.2011203064
 C          2.2165834799        3.8941402685       -0.5133943410
 C          3.0559673543        2.7888420970       -0.7644083997
 C          1.8348976184        1.5291026117        0.9720225837
 H          2.3622544657        4.8047187825       -1.0744278747
 C          3.7091652130        0.4970933595       -0.2332728352
 C          5.4412174342       -1.7281752651       -0.6580433585
 C          3.5536806577       -0.6940916513        0.5141070457
 C          4.7451272089        0.5689460251       -1.1974673054
 C          5.5857558142       -0.5463553534       -1.3868213551
 C          4.4235509923       -1.7832651594        0.2844075453
 H          6.3671827005       -0.4626698189       -2.1269195681
 H          4.2744393701       -2.6727462121        0.8751885192
 C          4.0895635227        2.8400134410       -1.7246889828
 H          4.2288255329        3.7495572436       -2.2895728809
 C          4.9129155590        1.7614019520       -1.9366481354
 H          5.7036709158        1.8180747327       -2.6696176596
 C          1.7017762290        0.3239577521        1.7015919717
 H          0.9330106321        0.2472806487        2.4547121314
 C          2.5279245427       -0.7478298701        1.4823188912
 H          2.4047547055       -1.6505522013        2.0619288909
 C          6.3876247478       -2.8842108208       -0.9197632611
 C          6.0866490470       -4.0987370856       -0.0403143938
 H          6.1958602854       -3.8602508491        1.0153225576
 H          6.7924288653       -4.8916016987       -0.2719923851
 H          5.0863155780       -4.4843677785       -0.2252994953
 C          7.8235786997       -2.4174547046       -0.6350545589
 H          7.9197570238       -2.0865683635        0.3967443903
 H          8.1238924311       -1.6020060127       -1.2870921207
 H          8.5109322747       -3.2432687062       -0.7946470806
 C          6.2576185725       -3.3029560390       -2.3927119364
 H          6.5387008018       -2.5017167435       -3.0703694638
 H          5.2353697971       -3.6010545740       -2.6160910752
 H          6.9104970423       -4.1489399379       -2.5873080859
 C          0.0078648734        2.7239672244        2.3133628752
 H         -0.5512192081        3.6622121141        2.2212589866
 H          0.5718267354        2.7905986553        3.2508902894
 H         -0.5945069211        1.3940294495        4.5423175006
 C         -1.2153219148        1.0735409987        3.7182689151
 C         -2.8616791336        0.2605250318        1.6164902258
 C         -2.2029784319        0.1407835925        3.9530860818
 C         -1.0055722934        1.6238989615        2.4542778115
 C         -1.8366139424        1.2141470084        1.3730117017
 C         -3.0510713398       -0.2853099506        2.9120526598
 C         -3.7226063711       -0.1377435007        0.5693364134
 C         -5.4756008682       -0.9250457881       -1.5381374507
 C         -4.7605012066       -1.0741082955        0.8057428940
 C         -3.5742265036        0.4031796963       -0.7286417771
 C         -4.4543013148       -0.0031522744       -1.7540035368
 C         -5.6128212955       -1.4471361885       -0.2559927562
 H         -4.3162271688        0.4305300679       -2.7329158008
 H         -6.3915093823       -2.1611873627       -0.0405342386
 C         -1.7112987843        1.7358488467        0.0645682182
 H         -0.9414057229        2.4633112901       -0.1408875447
 C         -2.5473043150        1.3466022871       -0.9501906074
 H         -2.4306615977        1.7696862125       -1.9368220972
 C         -4.0874718137       -1.2204143824        3.1277549830
 H         -4.2212765138       -1.6270391126        4.1189985499
 C         -4.9195434313       -1.6047242181        2.1046793243
 H         -5.7112069520       -2.3157852456        2.2874809193
 C         -6.3853564126       -1.3183749268       -2.6871412083
 C         -7.0951997338       -0.0590720453       -3.2069457972
 H         -6.3921524264        0.6741361866       -3.5926647924
 H         -7.6776183081        0.4053523744       -2.4143023440
 H         -7.7714497084       -0.3301439992       -4.0125676789
 C         -7.4471577200       -2.3381969276       -2.2717231021
 H         -8.0649857583       -2.5812569550       -3.1318305116
 H         -8.1016376541       -1.9373537675       -1.5010521664
 H         -6.9939452674       -3.2629636311       -1.9214421426
 C         -5.5282935344       -1.9349179492       -3.8036114210
 H         -4.8016095467       -1.2282289783       -4.1951514026
 H         -6.1695006723       -2.2444364812       -4.6238213253
 H         -4.9963058683       -2.8103040640       -3.4370698036
 H         -2.3422203314       -0.2610223714        4.9452458109
