77
       -105.32175200
 H          0.6478377655        4.7532994846        0.2368821205
 C          1.2549067087        3.8614136800        0.2925952481
 C          2.8651286262        1.5862989584        0.4339635120
 C          1.0707181585        2.8529879506       -0.6528894024
 C          2.2010226155        3.7620172300        1.2903221824
 C          3.0310233302        2.6274970786        1.3830323580
 C          1.8825079788        1.6848318540       -0.5878835475
 H          2.3219865409        4.5641451612        2.0024724033
 C          3.7074518521        0.4538735165        0.5004660221
 C          5.4222208866       -1.8217665629        0.6229634325
 C          3.5805668531       -0.5929914616       -0.4415136002
 C          4.7050049443        0.3550192440        1.5029798711
 C          5.5397975295       -0.7827553344        1.5405390320
 C          4.4401240782       -1.7088605743       -0.3579979466
 H          6.2884700165       -0.8242516569        2.3154029682
 H          4.3178786172       -2.4906750642       -1.0923254828
 C          4.0271015380        2.5095143879        2.3774677861
 H          4.1435705816        3.3100414487        3.0925853013
 C          4.8423942161        1.4056319354        2.4364779735
 H          5.6037615426        1.3338513059        3.1986537075
 C          1.7786874059        0.6220981281       -1.5150210852
 H          1.0409139076        0.6787817396       -2.3004130408
 C          2.5952264580       -0.4772765120       -1.4462705254
 H          2.4956428494       -1.2690046994       -2.1737902400
 C          6.3102917741       -3.0517283108        0.6563562755
 C          7.3378054499       -3.0025697926        1.7885599610
 H          6.8545976707       -2.9621521469        2.7622661844
 H          8.0085643702       -2.1535296780        1.6780950906
 H          7.9435441552       -3.9041676464        1.7606590681
 C          7.0614513914       -3.1567321051       -0.6793904397
 H          7.6667166464       -2.2687659996       -0.8477112893
 H          6.3831568580       -3.2756517229       -1.5198294586
 H          7.7210268392       -4.0194565982       -0.6578018713
 C          5.4227408308       -4.2901257614        0.8569389522
 H          4.8634213831       -4.2121839256        1.7868531643
 H          6.0457157801       -5.1784044320        0.9072627226
 H          4.7180132027       -4.4208103164        0.0401645178
 C          0.1108527883        3.1006552195       -1.7815559249
 H          0.7148754848        3.3252771988       -2.6682809999
 H         -0.4547130297        4.0117842851       -1.5543115276
 H         -0.4063952050        2.2058666361       -4.2343971339
 C         -1.0578211100        1.7424858806       -3.5077412097
 C         -2.7789019104        0.5672573196       -1.6517372185
 C         -2.0367410554        0.8797470855       -3.9464602417
 C         -0.8936651034        2.0479058560       -2.1546098415
 C         -1.7604724118        1.4493951410       -1.1995485221
 C         -2.9247276206        0.2753030967       -3.0324444339
 C         -3.6769386322       -0.0116731154       -0.7274975099
 C         -5.5027363904       -1.1576175738        1.1393815737
 C         -4.7095167348       -0.8743903425       -1.1720369556
 C         -3.5724365692        0.2724255007        0.6545428797
 C         -4.4878035718       -0.3091129864        1.5599169719
 C         -5.5976341888       -1.4264140814       -0.2271732166
 H         -4.3763524219       -0.0675044193        2.6047382674
 H         -6.3759845783       -2.0779306227       -0.5947165047
 C         -1.6793640623        1.7129401537        0.1883247280
 H         -0.9147254630        2.3814178870        0.5526904618
 C         -2.5500547593        1.1464211480        1.0829036147
 H         -2.4654355627        1.3738935727        2.1351034819
 C         -3.9559841288       -0.5907324371       -3.4561458724
 H         -4.0556265434       -0.8026869915       -4.5101337503
 C         -4.8261771445       -1.1503047898       -2.5528963350
 H         -5.6146149346       -1.8049195070       -2.8928786723
 C         -6.4981845834       -1.7904701962        2.0928837821
 C         -6.3921742422       -3.3189164744        1.9734519089
 H         -5.3854792941       -3.6519527170        2.2170733718
 H         -6.6380618768       -3.6677891229        0.9744580215
 H         -7.0839545849       -3.7849875969        2.6691724367
 C         -7.9117229779       -1.3334689940        1.7003329357
 H         -8.1794062241       -1.6534278862        0.6972103112
 H         -7.9894135222       -0.2495016748        1.7482254844
 H         -8.6344433673       -1.7587620144        2.3907644358
 C         -6.2458836641       -1.3978183623        3.5493428363
 H         -6.9841354730       -1.8814516071        4.1829840288
 H         -6.3431863953       -0.3239985382        3.6928482057
 H         -5.2626166890       -1.7225417177        3.8830243156
 H         -2.1415143219        0.6702062367       -5.0001370516
