77
       -105.32172478
 H          0.3518765220        4.1780564125        0.5334514438
 C          1.0635799903        3.3646384863        0.5338998371
 C          2.9772182196        1.3354190125        0.5083832336
 C          1.0331828846        2.4307055508       -0.5027866362
 C          1.9949598468        3.3012163322        1.5468105256
 C          2.9810248140        2.2938887127        1.5540218738
 C          1.9912728432        1.3806635210       -0.5143988433
 H          1.9928151816        4.0423002094        2.3317062073
 C          3.9881657138        0.3489910422        0.4763433404
 C          6.0726058622       -1.5944439588        0.3624700942
 C          4.0287292435       -0.6088063601       -0.5642496311
 C          4.9940896295        0.3173505673        1.4737877063
 C          6.0112091905       -0.6553827205        1.3933149349
 C          5.0708210905       -1.5622439554       -0.5981909262
 H          6.7655333241       -0.6538868606        2.1656010067
 H          5.0698995291       -2.2723435020       -1.4095336053
 C          3.9780652940        2.2326632464        2.5521261055
 H          3.9633723895        2.9639510446        3.3463333500
 C          4.9597652437        1.2732257094        2.5137027452
 H          5.7230240192        1.2466757639        3.2769100824
 C          2.0403540066        0.3914502807       -1.5256327110
 H          1.2885234648        0.3905694903       -2.2981930919
 C          3.0209315839       -0.5667446137       -1.5514287220
 H          3.0365447475       -1.3000724055       -2.3439405335
 C          7.2150352324       -2.5916942847        0.3315390465
 C          7.1318116528       -3.5416400946       -0.8641614564
 H          7.9752235815       -4.2260138900       -0.8365254716
 H          7.1805779747       -2.9984157265       -1.8053782033
 H          6.2228612757       -4.1385579209       -0.8344580173
 C          7.1812940087       -3.4251838046        1.6221364831
 H          7.3173755998       -2.8107481487        2.5076475575
 H          7.9812777276       -4.1595750923        1.5993174342
 H          6.2342612076       -3.9532443112        1.7106890506
 C          8.5385070814       -1.8150730295        0.2474632908
 H          8.5610956790       -1.1951315415       -0.6462121811
 H          9.3671493079       -2.5156822878        0.1984850889
 H          8.6918839850       -1.1762762316        1.1128212387
 C          0.0783909356        2.6534720564       -1.6447122480
 H          0.6844386283        2.8546115287       -2.5341590634
 H         -0.4929404154        3.5639982787       -1.4362810920
 H         -0.1919267184        1.4194579640       -4.0011007748
 C         -0.9381204662        1.0840153064       -3.2948326712
 C         -2.9396831667        0.2743900639       -1.5287439514
 C         -1.9037522602        0.1972586529       -3.7245397514
 C         -0.9175447133        1.5797778087       -1.9930240669
 C         -1.9218922789        1.1573521705       -1.0765025565
 C         -2.9325397351       -0.2190459894       -2.8584230240
 C         -3.9921756934       -0.0982326868       -0.6627479028
 C         -6.1599601888       -0.7860350213        1.0590654165
 C         -5.0306197164       -0.9511342323       -1.1146523291
 C         -4.0409794351        0.3924772472        0.6624202536
 C         -5.1229285545        0.0354690139        1.4950129736
 C         -6.0911013194       -1.2759532054       -0.2408944988
 H         -5.1319036542        0.4290519714        2.5002454542
 H         -6.8655985041       -1.9238139330       -0.6191960189
 C         -1.9818956686        1.6081749954        0.2628717726
 H         -1.2071936922        2.2587282794        0.6353139859
 C         -3.0021789303        1.2410839545        1.1027099533
 H         -3.0251341648        1.6119866796        2.1166167020
 C         -3.9631573623       -1.0868457706       -3.2840499415
 H         -3.9406877904       -1.4617472675       -4.2963616939
 C         -4.9852721431       -1.4414021826       -2.4381143499
 H         -5.7724659917       -2.0952154129       -2.7825273076
 C         -7.3073828326       -1.1069223038        1.9986099244
 C         -7.9849102817        0.2093579633        2.4100649377
 H         -7.3049098318        0.8671093577        2.9445752259
 H         -8.8262209645       -0.0040745974        3.0631108838
 H         -8.3575094303        0.7367077314        1.5345876065
 C         -6.7474907798       -1.8174605194        3.2405562888
 H         -6.2375244535       -2.7357082589        2.9573152036
 H         -7.5634986914       -2.0732219965        3.9102299652
 H         -6.0495963200       -1.1897350145        3.7878372139
 C         -8.3583120022       -2.0120693329        1.3535220833
 H         -8.8053004325       -1.5405163427        0.4811438120
 H         -9.1549746613       -2.2004268531        2.0679925449
 H         -7.9355851079       -2.9740345087        1.0723256443
 H         -1.8917445213       -0.1636370428       -4.7418763523
