77
       -105.32171394
 H          0.4179355471        4.3309311258        0.8444216015
 C          1.0995289166        3.5259928816        0.6088894725
 C          2.9262373148        1.4974425863        0.0330622747
 C          1.0053372188        2.3257186565        1.3105578528
 C          2.0542131779        3.7297786732       -0.3656707124
 C          2.9924962060        2.7258143998       -0.6729419427
 C          1.9251866276        1.2792112955        1.0180132607
 H          2.1010007383        4.6736400878       -0.8874792448
 C          3.8885656186        0.4979272598       -0.2341312537
 C          5.8695692743       -1.4940797199       -0.7282149534
 C          3.8666199789       -0.7278484559        0.4703200347
 C          4.9061584176        0.7149697637       -1.1971160263
 C          5.8721925446       -0.2895167207       -1.4238479305
 C          4.8585022918       -1.6965718004        0.2081265291
 H          6.6315370280       -0.0906124992       -2.1631197348
 H          4.8175455005       -2.6187044934        0.7679583000
 C          4.0036411842        2.9180538420       -1.6407763673
 H          4.0391211262        3.8558405600       -2.1747636811
 C          4.9349178448        1.9414569124       -1.8963374868
 H          5.7071419282        2.1076459784       -2.6324177773
 C          1.9165819711        0.0353783337        1.6914962994
 H          1.1586908749       -0.1574094741        2.4335903906
 C          2.8517516220       -0.9330148931        1.4299604139
 H          2.8245212686       -1.8679054282        1.9696927887
 C          6.9178837587       -2.5697974399       -0.9428076171
 C          7.6742037332       -2.7778536668        0.3786329619
 H          8.4407592308       -3.5353392709        0.2430484086
 H          7.0136675993       -3.1071892072        1.1762573220
 H          8.1574443626       -1.8546798619        0.6910426656
 C          7.9286674129       -2.1957168842       -2.0282612326
 H          8.4822111330       -1.2978812180       -1.7628218041
 H          7.4421784460       -2.0536201165       -2.9907894117
 H          8.6482494314       -3.0021523347       -2.1397880401
 C          6.2196642782       -3.8741972224       -1.3566513607
 H          5.6437436500       -3.7265137269       -2.2677245126
 H          5.5528065525       -4.2430966566       -0.5822625473
 H          6.9661585500       -4.6401392817       -1.5459183567
 C          0.0180197156        2.2266589870        2.4413682893
 H         -0.5530546259        3.1604267352        2.4782035580
 H          0.5964139315        2.1729904117        3.3698232879
 H         -0.3753114260        0.4418923593        4.3904468990
 C         -1.0661327796        0.2878991981        3.5737214110
 C         -2.9154952237       -0.0820721176        1.5178738941
 C         -2.0262266632       -0.6951512282        3.6941645909
 C         -0.9775564449        1.0988347510        2.4439119080
 C         -1.9091946287        0.9124926707        1.3836377558
 C         -2.9759454814       -0.9001343103        2.6749697776
 C         -3.8884590353       -0.2479691136        0.5067858076
 C         -5.8870306370       -0.5440877975       -1.5068171155
 C         -4.9108805419       -1.2207510077        0.6419423685
 C         -3.8720314330        0.5682541408       -0.6476847837
 C         -4.8729149083        0.4028997303       -1.6285045010
 C         -5.8859102349       -1.3475951531       -0.3713636419
 H         -4.8364676905        1.0470753524       -2.4940356281
 H         -6.6491341517       -2.0970185976       -0.2352475465
 C         -1.9069438726        1.7003096509        0.2088429787
 H         -1.1456519668        2.4527040183        0.0797471996
 C         -2.8524940207        1.5369374143       -0.7709777816
 H         -2.8296821265        2.1621166090       -1.6511557386
 C         -3.9926452901       -1.8749198264        2.7852493088
 H         -4.0239185821       -2.4942282370        3.6691735667
 C         -4.9343271188       -2.0315418496        1.7978208323
 H         -5.7104670850       -2.7749314681        1.9014387044
 C         -6.9422072801       -0.6552966748       -2.5914424588
 C         -7.9565989079       -1.7654479230       -2.3113974801
 H         -8.5059149544       -1.5784127493       -1.3914860705
 H         -7.4739592250       -2.7388260591       -2.2570989202
 H         -8.6793243793       -1.8021391077       -3.1218962575
 C         -6.2522744964       -0.9533455708       -3.9313663460
 H         -7.0029887148       -1.0647051474       -4.7083881976
 H         -5.6841607274       -1.8791359459       -3.8705022377
 H         -5.5794553436       -0.1542274644       -4.2300529825
 C         -7.6928773340        0.6829280712       -2.6759385993
 H         -8.1642416777        0.9168122002       -1.7238668130
 H         -8.4684470452        0.6170365861       -3.4335193991
 H         -7.0313422978        1.5026824512       -2.9429049083
 H         -2.0681376989       -1.3035161302        4.5849447266
