77
       -105.32166228
 H          0.5822871790        4.6677976711        0.1838835323
 C          1.2088055225        3.7896348824        0.2442393673
 C          2.8742312541        1.5555281130        0.3942215925
 C          1.0520246190        2.7756968953       -0.6999163539
 C          2.1531399582        3.7144802739        1.2460596484
 C          3.0108580387        2.6013243424        1.3428018634
 C          1.8909741254        1.6273712902       -0.6293391597
 H          2.2519702110        4.5204361985        1.9573352019
 C          3.7468650577        0.4463593068        0.4625477751
 C          5.5276618740       -1.7783298585        0.5837963915
 C          3.6506028462       -0.6034038295       -0.4798315297
 C          4.7453932798        0.3749493551        1.4664255916
 C          5.6128624365       -0.7382564316        1.5036718633
 C          4.5428451364       -1.6934389517       -0.3973220811
 H          6.3609979006       -0.7593052672        2.2798901173
 H          4.4441100066       -2.4775719443       -1.1327263411
 C          4.0069407022        2.5096798427        2.3401436823
 H          4.0999711112        3.3128332739        3.0557646503
 C          4.8516089976        1.4282450200        2.4009361405
 H          5.6128631948        1.3769068432        3.1648815766
 C          1.8154661551        0.5601827814       -1.5542681076
 H          1.0757965302        0.5944393154       -2.3387600596
 C          2.6622279549       -0.5161368973       -1.4843278748
 H          2.5843843251       -1.3111162859       -2.2109659452
 C          6.4543352917       -2.9795321400        0.6133890963
 C          7.2148078700       -3.0489407470       -0.7195138117
 H          7.7936438556       -2.1414315295       -0.8763752555
 H          6.5441850614       -3.1799438913       -1.5643739667
 H          7.9000702244       -3.8915264590       -0.7027829906
 C          5.6074873349       -4.2481830538        0.7997830429
 H          4.9122816039       -4.3967605928       -0.0220343963
 H          5.0405597116       -4.1957929957        1.7268630675
 H          6.2595596203       -5.1154889698        0.8475359668
 C          7.4742023912       -2.9055838036        1.7511150772
 H          8.1190163339       -2.0356110604        1.6492895709
 H          8.1076890505       -3.7878323314        1.7209532332
 H          6.9849812021       -2.8860384287        2.7224703261
 C          0.0901179946        2.9966077735       -1.8331966327
 H          0.6917028075        3.2019826199       -2.7259218004
 H         -0.4784784041        3.9099875740       -1.6247035433
 H         -0.3813552893        1.9817849842       -4.2521991137
 C         -1.0466979426        1.5560515649       -3.5150329268
 C         -2.8112234777        0.4798481835       -1.6400611593
 C         -2.0187869701        0.6705359962       -3.9296847243
 C         -0.9096537317        1.9291090378       -2.1785614964
 C         -1.7993956699        1.3810064075       -1.2114002351
 C         -2.9263132022        0.1157821630       -3.0062139045
 C         -3.7335943231       -0.0461010634       -0.7078493032
 C         -5.6148399811       -1.0842327528        1.1678665273
 C         -4.7600991325       -0.9289063249       -1.1283963956
 C         -3.6596328025        0.3129517389        0.6577904322
 C         -4.6020538608       -0.2149359252        1.5656921062
 C         -5.6771417102       -1.4286691647       -0.1784854729
 H         -4.5200044945        0.0811018205        2.6006084216
 H         -6.4454794915       -2.0967322002       -0.5334561612
 C         -1.7465246018        1.7164742806        0.1614713151
 H         -0.9852852711        2.3976263841        0.5082865848
 C         -2.6418786816        1.2031360699        1.0643560161
 H         -2.5800195294        1.4856986258        2.1047351781
 C         -3.9506518173       -0.7710685623       -3.4055726833
 H         -4.0264693241       -1.0401385878       -4.4484897867
 C         -4.8434797855       -1.2791890732       -2.4938113642
 H         -5.6254955278       -1.9501157201       -2.8164062379
 C         -6.5957873207       -1.6133026960        2.1976104775
 C         -7.6373419399       -2.5526425712        1.5870015277
 H         -7.1700798787       -3.4292137483        1.1436468751
 H         -8.2408076146       -2.0428815981        0.8393661281
 H         -8.3081489531       -2.8987989723        2.3685308007
 C         -7.3273283769       -0.4237078303        2.8376741607
 H         -7.8580142213        0.1499656411        2.0810384841
 H         -6.6439580156        0.2417910546        3.3580534545
 H         -8.0525142465       -0.7892199373        3.5590047666
 C         -5.8130873957       -2.3856817854        3.2709411575
 H         -5.1070547441       -1.7483232107        3.7963229985
 H         -5.2655565243       -3.2123238159        2.8231645796
 H         -6.5055112556       -2.7919787242        4.0024998018
 H         -2.1007098600        0.4075016703       -4.9734046466
