77
       -105.32168125
 H          0.3811583543        4.3165988843        0.3286323149
 C          1.0772262081        3.4910898928        0.3738996362
 C          2.9454165264        1.4216687882        0.4711407060
 C          1.0326576610        2.5067351390       -0.6113607099
 C          2.0032682738        3.4611084168        1.3958657606
 C          2.9641164167        2.4342230071        1.4641568145
 C          1.9699079275        1.4361362616       -0.5623655342
 H          2.0121662108        4.2428304632        2.1402983918
 C          3.9305668495        0.4092615917        0.5028141177
 C          5.9624053455       -1.5926798280        0.5261200544
 C          3.9536090456       -0.6028004599       -0.4843604970
 C          4.9269683620        0.4035411248        1.5113366104
 C          5.9201963782       -0.5998753754        1.4994229865
 C          4.9681875274       -1.5829660247       -0.4494036477
 H          6.6641065328       -0.5716100463        2.2794697328
 H          4.9593359516       -2.3399558591       -1.2190607906
 C          3.9524855948        2.4009297137        2.4731965319
 H          3.9508452939        3.1742240868        3.2267503314
 C          4.9087491370        1.4154354123        2.4960636065
 H          5.6645203861        1.4106508616        3.2671268437
 C          2.0041243814        0.3974462626       -1.5218917049
 H          1.2624861367        0.3777951483       -2.3041574304
 C          2.9592040116       -0.5862116782       -1.4863597762
 H          2.9645026345       -1.3592835335       -2.2403010659
 C          7.0383758606       -2.6618898644        0.4890695339
 C          6.3712711868       -4.0418167646        0.5960301653
 H          5.6987652526       -4.2339611594       -0.2355111897
 H          5.8069397328       -4.1220575383        1.5226491159
 H          7.1348028177       -4.8143320432        0.5939060069
 C          8.0459838133       -2.5199786236        1.6312117882
 H          7.5640544282       -2.6221538397        2.6009982995
 H          8.5691939386       -1.5676327828        1.5818665413
 H          8.7907513323       -3.3070264062        1.5507380695
 C          7.7936416824       -2.5478690487       -0.8441649063
 H          8.2435051241       -1.5625536774       -0.9449142382
 H          7.1413216714       -2.7171963880       -1.6965568517
 H          8.5864775484       -3.2895900702       -0.8769140226
 C          0.0868129566        2.6867262872       -1.7676660552
 H          0.6998315762        2.8628632873       -2.6579086797
 H         -0.4907056892        3.6010082110       -1.5947413894
 H         -0.1952129414        1.4190279970       -4.1025778045
 C         -0.9293090434        1.0835675027       -3.3838340333
 C         -2.8919163292        0.2628227073       -1.5791799927
 C         -1.8858173856        0.1758232255       -3.7887705774
 C         -0.9003492061        1.5975713590       -2.0889913686
 C         -1.8865833161        1.1730394397       -1.1540470100
 C         -2.8939576991       -0.2484368427       -2.9021720966
 C         -3.9224288445       -0.1212021525       -0.6920157192
 C         -6.0413374491       -0.8425851423        1.0761412828
 C         -4.9469010675       -1.0049670077       -1.1155410204
 C         -3.9624273284        0.3871960821        0.6267830334
 C         -5.0205853299        0.0137071838        1.4823857820
 C         -5.9829198098       -1.3463280709       -0.2190683966
 H         -5.0238074336        0.4218490047        2.4818201044
 H         -6.7467158677       -2.0187650858       -0.5755885179
 C         -1.9396960834        1.6459672703        0.1779735021
 H         -1.1768510546        2.3226970465        0.5279281063
 C         -2.9393558269        1.2689200279        1.0379117616
 H         -2.9577306839        1.6566215626        2.0456038864
 C         -3.9121724498       -1.1432047636       -3.3006423776
 H         -3.8979148438       -1.5296821587       -4.3087419606
 C         -4.9120067119       -1.5103339559       -2.4336253331
 H         -5.6894246183       -2.1862030837       -2.7570089206
 C         -7.1608598061       -1.1849292330        2.0414283060
 C         -6.5560626689       -1.8597104893        3.2822911481
 H         -5.8689098642       -1.2024565007        3.8080846547
 H         -6.0221119246       -2.7651905915        3.0021137949
 H         -7.3511446315       -2.1318606274        3.9704088629
 C         -8.1944211104       -2.1318360126        1.4290199449
 H         -7.7462982836       -3.0834411419        1.1518648880
 H         -8.6733988049       -1.6867266560        0.5597658127
 H         -8.9704734054       -2.3359751542        2.1616006541
 C         -7.8714779511        0.1155191166        2.4471271872
 H         -7.2025073730        0.8017885390        2.9592357021
 H         -8.6933956300       -0.1143530591        3.1190086036
 H         -8.2766239840        0.6181682933        1.5715949429
 H         -1.8812444458       -0.1987133212       -4.8012185509
