77
       -105.32167174
 H          0.7330132308        4.8668800556        0.3507452777
 C          1.3105199340        3.9620482025        0.2294179774
 C          2.8354137775        1.6446846150       -0.0781917923
 C          1.0341397390        2.8641070815        1.0476959252
 C          2.3056955095        3.9297618698       -0.7210706133
 C          3.0925235064        2.7727043534       -0.8994566953
 C          1.8073830775        1.6795400346        0.9023537243
 H          2.4981355045        4.7975447114       -1.3334579905
 C          3.6302202472        0.4867660630       -0.2308887661
 C          5.2345759931       -1.8513147668       -0.5317398320
 C          3.4150847493       -0.6484849525        0.5854737809
 C          4.6667037654        0.4481427193       -1.1964659408
 C          5.4436092370       -0.7207794600       -1.3235804660
 C          4.2226397815       -1.7951994890        0.4167355971
 H          6.2268826023       -0.7214067561       -2.0664442482
 H          4.0290849314       -2.6393650283        1.0588688203
 C          4.1301621074        2.7163060543       -1.8549812580
 H          4.3170814907        3.5837143595       -2.4701295196
 C          4.8968674947        1.5862632596       -2.0016453294
 H          5.6896606620        1.5597323960       -2.7341194082
 C          1.6211512713        0.5322762262        1.7092633625
 H          0.8553243995        0.5424243395        2.4694848305
 C          2.3933373634       -0.5901295322        1.5577163164
 H          2.2295482136       -1.4469527082        2.1941468726
 C          6.1077758870       -3.0746175778       -0.7358495521
 C          5.7407172170       -4.2207868119        0.2079473412
 H          5.8746724284       -3.9353155642        1.2489402186
 H          6.3937619386       -5.0670153145        0.0134105741
 H          4.7166521456       -4.5523773809        0.0497936062
 C          7.5718043853       -2.6826041004       -0.4839152510
 H          7.6968019520       -2.3044046277        0.5283225274
 H          7.9158460242       -1.9227546084       -1.1799656428
 H          8.2059798500       -3.5564091490       -0.6030141842
 C          5.9394935318       -3.5611181170       -2.1839337334
 H          6.2599356289       -2.8139267929       -2.9045322971
 H          4.8995176480       -3.8101233622       -2.3846320224
 H          6.5402319862       -4.4527933679       -2.3382841758
 C          0.0062480606        3.0269493224        2.1302803909
 H         -0.5379475649        3.9610317825        1.9476917447
 H          0.5526748528        3.1688497074        3.0701079233
 H         -0.7190728542        1.9751090439        4.4643196167
 C         -1.2992929249        1.5570553035        3.6546732553
 C         -2.8311063215        0.4894495587        1.5800946952
 C         -2.2965092995        0.6543321364        3.9470537731
 C         -1.0242330473        1.9558146489        2.3444156621
 C         -1.8009685374        1.4212474956        1.2799223765
 C         -3.0868650255        0.0980281096        2.9196426237
 C         -3.6293466036       -0.0429838858        0.5432041544
 C         -5.2405638639       -1.1110874636       -1.5530349437
 C         -4.6679470626       -0.9619047708        0.8347927879
 C         -3.4155599745        0.3414740010       -0.8014199984
 C         -4.2265100650       -0.2022782791       -1.8223353420
 C         -5.4482577586       -1.4740257125       -0.2211313977
 H         -4.0338572067        0.1165115212       -2.8341048595
 H         -6.2331094983       -2.1711840016        0.0305465429
 C         -1.6161752025        1.7928648767       -0.0727632117
 H         -0.8487758300        2.5097004508       -0.3213011843
 C         -2.3916652996        1.2734100377       -1.0766586503
 H         -2.2288621872        1.5826746113       -2.0983552869
 C         -4.1266533484       -0.8174189626        3.1911089019
 H         -4.3125154772       -1.1030142484        4.2156250148
 C         -4.8967257786       -1.3348173678        2.1783704105
 H         -5.6911266830       -2.0309338860        2.4021932979
 C         -6.1174463510       -1.7137652192       -2.6339755024
 C         -5.7511948965       -1.2138068296       -4.0322175863
 H         -4.7283410655       -1.4777617962       -4.2925586316
 H         -5.8820493305       -0.1371796351       -4.1150340645
 H         -6.4068476339       -1.6808398922       -4.7618856921
 C         -7.5798329844       -1.3396481614       -2.3476276463
 H         -8.2166155940       -1.7450448644       -3.1286883892
 H         -7.7014576540       -0.2587689799       -2.3335076896
 H         -7.9234489699       -1.7369169919       -1.3966644181
 C         -5.9538826280       -3.2415860931       -2.6029670419
 H         -4.9150324337       -3.5178529174       -2.7712066231
 H         -6.5572767094       -3.6861921929       -3.3891167025
 H         -6.2741335834       -3.6664281844       -1.6557678943
 H         -2.4878480400        0.3714395857        4.9709974034
