77
       -105.32163607
 H          0.5992663187        4.6918187087        0.1720908559
 C          1.2191587681        3.8091701127        0.2350038508
 C          2.8667926503        1.5623303492        0.3919972536
 C          1.0538905837        2.7931986226       -0.7056001749
 C          2.1630959189        3.7298201173        1.2368161317
 C          3.0113216599        2.6097220088        1.3376582483
 C          1.8846332410        1.6390691377       -0.6322512257
 H          2.2686025068        4.5373732786        1.9453144127
 C          3.7305838710        0.4464848095        0.4638243940
 C          5.4948713205       -1.7909493043        0.5908980726
 C          3.6273923303       -0.6043923805       -0.4765741556
 C          4.7272661738        0.3693853120        1.4691154783
 C          5.5859616263       -0.7504707886        1.5097661356
 C          4.5120472470       -1.7003778224       -0.3916857420
 H          6.3323464388       -0.7762035679        2.2875239602
 H          4.4090875881       -2.4845169221       -1.1264930653
 C          4.0055774593        2.5125333689        2.3362733279
 H          4.1047134429        3.3169546159        3.0496485795
 C          4.8408807384        1.4240732601        2.4011911811
 H          5.6006356000        1.3683610790        3.1663213250
 C          1.8018631222        0.5704992181       -1.5549361489
 H          1.0632390494        0.6087726680       -2.3402691693
 C          2.6406332859       -0.5118330561       -1.4821863052
 H          2.5576118840       -1.3076584165       -2.2073201051
 C          6.4149233282       -2.9972097987        0.6213474346
 C          7.1846852962       -3.0613825392       -0.7065857040
 H          7.7693781300       -2.1558725605       -0.8528800652
 H          6.5190601199       -3.1824945390       -1.5568851369
 H          7.8652860777       -3.9077550614       -0.6910525619
 C          5.5618793481       -4.2635706005        0.7937771599
 H          4.8749741185       -4.4070394324       -0.0358543170
 H          4.9854593891       -4.2129582010        1.7150845582
 H          6.2105005017       -5.1332705638        0.8449496523
 C          7.4266211004       -2.9344335652        1.7670051315
 H          8.0783117151       -2.0686973174        1.6734118629
 H          8.0542386248       -3.8209242939        1.7384595094
 H          6.9299137026       -2.9149087742        2.7345681846
 C          0.0915507375        3.0173199932       -1.8377376877
 H          0.6927219552        3.2239919329       -2.7305019039
 H         -0.4757745029        3.9310933969       -1.6272528588
 H         -0.3931390502        2.0190419532       -4.2606451005
 C         -1.0541284023        1.5878805239       -3.5227493897
 C         -2.8057311270        0.4957450028       -1.6447631067
 C         -2.0276841097        0.7042267753       -3.9378279965
 C         -0.9098059837        1.9519321545       -2.1845105679
 C         -1.7933952352        1.3962557937       -1.2159865559
 C         -2.9286998473        0.1414076156       -3.0127993177
 C         -3.7204247658       -0.0397514029       -0.7104272115
 C         -5.5835640857       -1.1004770547        1.1706468688
 C         -4.7472235176       -0.9223406301       -1.1307278815
 C         -3.6380072330        0.3088960089        0.6574190053
 C         -4.5713141105       -0.2303832812        1.5680013486
 C         -5.6554113612       -1.4331806435       -0.1781951466
 H         -4.4823903294        0.0571149731        2.6047515616
 H         -6.4243935784       -2.1005912841       -0.5330035501
 C         -1.7333822503        1.7229571987        0.1586799292
 H         -0.9727402512        2.4049647755        0.5052224708
 C         -2.6210634226        1.2001454295        1.0636639018
 H         -2.5537090790        1.4758295204        2.1055431424
 C         -3.9539001480       -0.7444251744       -3.4121446575
 H         -4.0362771772       -1.0054447685       -4.4566091258
 C         -4.8393517711       -1.2617505202       -2.4983342173
 H         -5.6220445424       -1.9318980624       -2.8209019528
 C         -6.5529804952       -1.6437892552        2.2038666585
 C         -7.5987008978       -2.5780871587        1.5926705609
 H         -7.1343081511       -3.4488283608        1.1350540979
 H         -8.2100720450       -2.0609551873        0.8566057838
 H         -8.2614041779       -2.9342056065        2.3766234662
 C         -7.2804912809       -0.4641285343        2.8663892875
 H         -7.8180891229        0.1193235532        2.1222256338
 H         -6.5937350563        0.1949275527        3.3904763907
 H         -7.9992686189       -0.8405074011        3.5885366334
 C         -5.7568191840       -2.4273477361        3.2591127701
 H         -6.4402702684       -2.8443553795        3.9930716297
 H         -5.0466058359       -1.7945483635        3.7844351994
 H         -5.2121432831       -3.2470076705        2.7952798579
 H         -2.1154737998        0.4483975851       -4.9828563369
