77
       -105.32161050
 H          0.3231290925        4.0094035206        1.1447262516
 C          1.0512210688        3.2676712881        0.8482065685
 C          3.0127003467        1.4153450241        0.1402688015
 C          1.0056070133        1.9986782350        1.4210839060
 C          2.0210926860        3.6229896710       -0.0665469560
 C          3.0307302852        2.7128023970       -0.4322648664
 C          1.9881965493        1.0373611420        1.0500112073
 H          2.0283640760        4.6168717581       -0.4878759607
 C          4.0475632079        0.5081475055       -0.1800586716
 C          6.1828145319       -1.2921423360       -0.7605257756
 C          4.0716785003       -0.7856515504        0.3898116169
 C          5.0934783501        0.8877931226       -1.0586835519
 C          6.1372860527       -0.0236983087       -1.3293428222
 C          5.1383299259       -1.6580013139        0.0854600062
 H          6.9179971099        0.2999115934       -1.9990065137
 H          5.1294202066       -2.6370898089        0.5402102873
 C          4.0674614851        3.0649505801       -1.3254074320
 H          4.0637121974        4.0529058344       -1.7610212091
 C          5.0725503342        2.1796015180       -1.6285470241
 H          5.8651420047        2.4685346716       -2.3024030268
 C          2.0211843179       -0.2744648524        1.5780583498
 H          1.2388219222       -0.5929092053        2.2477182692
 C          3.0244437239       -1.1545913289        1.2617583757
 H          3.0272002327       -2.1452838885        1.6914473299
 C          7.3140982436       -2.2692673057       -1.0206818402
 C          7.9919216407       -2.5971144745        0.3188443243
 H          7.3061276589       -3.0708294724        1.0160426532
 H          8.3823179793       -1.6927021322        0.7803976692
 H          8.8207056238       -3.2784051074        0.1491818693
 C          8.3696716298       -1.7047707267       -1.9730386738
 H          7.9449191710       -1.4812983688       -2.9491708704
 H          9.1526711363       -2.4441137626       -2.1176283897
 H          8.8349801965       -0.8107648358       -1.5638662750
 C          6.7334371855       -3.5497585333       -1.6400829553
 H          6.2198762646       -3.3238160900       -2.5721045208
 H          6.0340248252       -4.0441018054       -0.9715139538
 H          7.5391600694       -4.2457770745       -1.8548423138
 C          0.0107447927        1.7374804935        2.5206329527
 H         -0.5612228139        2.6566309692        2.6840461987
 H          0.5853268751        1.5526754560        3.4340773389
 H         -0.2997638661       -0.3697703773        4.1361497677
 C         -1.0309523982       -0.3760651541        3.3401949055
 C         -2.9971241199       -0.3569274305        1.3620449336
 C         -2.0007013612       -1.3545030722        3.3415658086
 C         -0.9870478313        0.6210018551        2.3647749863
 C         -1.9709411755        0.6262904535        1.3387001284
 C         -3.0145167851       -1.3624577094        2.3623205517
 C         -4.0345223782       -0.3229258210        0.4035002844
 C         -6.1718630235       -0.1980348019       -1.4810342449
 C         -5.0808581265       -1.2776527887        0.4418435279
 C         -4.0612959443        0.6788350792       -0.5952894079
 C         -5.1299201892        0.7187578522       -1.5186745230
 C         -6.1238232381       -1.1924473444       -0.5027714637
 H         -5.1169082057        1.4996741513       -2.2619966254
 H         -6.9091738620       -1.9310766798       -0.4471560800
 C         -2.0068095319        1.5960168869        0.3082251369
 H         -1.2237145721        2.3346720569        0.2530586406
 C         -3.0126347800        1.6229731801       -0.6234509012
 H         -3.0166610232        2.3838776689       -1.3896765954
 C         -4.0517243823       -2.3207480958        2.3695784309
 H         -4.0467686472       -3.0855869745        3.1316541585
 C         -5.0596330446       -2.2795407066        1.4378594518
 H         -5.8535531265       -3.0108086044        1.4642627432
 C         -7.3439909279       -0.1564174174       -2.4428399829
 C         -7.3977952154       -1.4813975145       -3.2192684871
 H         -8.2189931944       -1.4511129054       -3.9295876848
 H         -7.5557829556       -2.3324250151       -2.5628090980
 H         -6.4734737659       -1.6380935874       -3.7711852375
 C         -7.2380354688        0.9924182758       -3.4468359593
 H         -8.1035228531        0.9744416106       -4.1034095947
 H         -6.3510537195        0.8951689902       -4.0690787327
 H         -7.2270626792        1.9573393101       -2.9446805172
 C         -8.6352883390        0.0232035962       -1.6290514394
 H         -8.8048829410       -0.8046333622       -0.9461159600
 H         -9.4843114496        0.0786554454       -2.3043222062
 H         -8.5970214266        0.9439126802       -1.0508323134
 H         -2.0077747184       -2.1088915845        4.1136611943
