77
       -105.32160213
 H          0.3325801732        4.0921858893        0.7750326656
 C          1.0549843012        3.2890976572        0.7376221826
 C          3.0037641379        1.2970823506        0.6202627360
 C          1.0428779367        2.4093491190       -0.3424448801
 C          1.9850900899        3.1895928147        1.7518489284
 C          2.9876266414        2.2022181505        1.7120398186
 C          2.0188704505        1.3743693643       -0.4015487789
 H          1.9670762670        3.8909183917        2.5723308005
 C          4.0337738760        0.3330088973        0.5417038666
 C          6.1626018682       -1.5548296782        0.3385555376
 C          4.0921684997       -0.5700492603       -0.5447279167
 C          5.0411705370        0.2707995214        1.5373501319
 C          6.0825192219       -0.6744960701        1.4124202433
 C          5.1549584680       -1.4952259996       -0.6214401477
 H          6.8334442051       -0.6912868031        2.1860552129
 H          5.1732358081       -2.1675205925       -1.4659368984
 C          3.9852689945        2.1087020949        2.7082729288
 H          3.9553438121        2.7980236304        3.5387979430
 C          4.9858577538        1.1719495506        2.6230876484
 H          5.7487522104        1.1221073208        3.3855006880
 C          2.0842030364        0.4359091293       -1.4578821552
 H          1.3311373961        0.4568351194       -2.2288557165
 C          3.0827335696       -0.5016543308       -1.5293457135
 H          3.1112816442       -1.1962714139       -2.3556660891
 C          7.2936461626       -2.5532874819        0.1771019056
 C          8.3037845072       -2.4861795849        1.3238372018
 H          7.8375153441       -2.7218652280        2.2779081529
 H          8.7755475979       -1.5076693334        1.3797425040
 H          9.0883042163       -3.2181573632        1.1524941949
 C          8.0278526793       -2.2471150867       -1.1376728832
 H          7.3753770450       -2.3496127488       -2.0005801403
 H          8.8566219601       -2.9384459492       -1.2602454661
 H          8.4263521732       -1.2349599689       -1.1254254145
 C          6.7043384470       -3.9712913157        0.1289156805
 H          6.1504754466       -4.1854905119        1.0404040471
 H          7.5093406017       -4.6951828470        0.0411034975
 H          6.0390849371       -4.1069570574       -0.7193439168
 C          0.0934966062        2.6749295003       -1.4804448500
 H          0.7042980107        2.9103204824       -2.3580330514
 H         -0.4791925310        3.5763470925       -1.2392552567
 H         -0.1382925076        1.5106334139       -3.8758485769
 C         -0.8994018180        1.1580004627       -3.1942446713
 C         -2.9402951637        0.3144902107       -1.4905719587
 C         -1.8609822606        0.2927161174       -3.6679720240
 C         -0.9005806232        1.6157536643       -1.8759328436
 C         -1.9229579252        1.1733018556       -0.9928161678
 C         -2.9117809389       -0.1398205554       -2.8339738136
 C         -4.0141914910       -0.0709047319       -0.6572818327
 C         -6.2244712278       -0.7740973832        1.0026755066
 C         -5.0517032566       -0.8967030148       -1.1567095424
 C         -4.0865592139        0.3808968104        0.6815400454
 C         -5.1905972633        0.0172988310        1.4846908911
 C         -6.1315520257       -1.2290229401       -0.3136105002
 H         -5.2115925906        0.3845914511        2.4981902100
 H         -6.9093448235       -1.8561899208       -0.7224371390
 C         -2.0052313007        1.5820913708        0.3598239285
 H         -1.2300103457        2.2100093311        0.7680106048
 C         -3.0462579656        1.2016934775        1.1672635330
 H         -3.0850276023        1.5410140331        2.1916903567
 C         -3.9410238090       -0.9832565419       -3.3066665648
 H         -3.9010082019       -1.3286811101       -4.3288423700
 C         -4.9847038477       -1.3502108863       -2.4931761450
 H         -5.7718574644       -1.9843120366       -2.8727339416
 C         -7.4344535186       -1.1502970084        1.8364009376
 C         -8.6921410117       -0.6063024588        1.1404243413
 H         -8.8300536470       -1.0380681143        0.1529755634
 H         -8.6339622134        0.4751902855        1.0379423406
 H         -9.5683315560       -0.8466585945        1.7357585038
 C         -7.3736062361       -0.5735294137        3.2515733735
 H         -7.3469880934        0.5138375931        3.2352480800
 H         -6.5115969283       -0.9511410580        3.7972281069
 H         -8.2644215575       -0.8713599340        3.7976756221
 C         -7.5151096467       -2.6816002883        1.9352899368
 H         -8.3641070415       -2.9597355957        2.5530969721
 H         -6.6131131128       -3.0825292594        2.3926574287
 H         -7.6442426682       -3.1468370750        0.9621530072
 H         -1.8326584598       -0.0387003156       -4.6949326135
