77
       -105.32625266
 H          1.0103254438        4.3882540189       -0.3243633245
 C          1.7267626872        3.5812530615       -0.2837517420
 C          3.5977459556        1.5091251367       -0.1917377701
 C          1.3081462081        2.2862959976       -0.5784160145
 C          3.0354209536        3.8635226836        0.0474954454
 C          4.0038627068        2.8394538946        0.0884866893
 C          2.2459656365        1.2186252134       -0.5139488042
 H          3.3320405187        4.8779173458        0.2671163984
 C          4.5564739069        0.4724809830       -0.1551984010
 C          6.4914042704       -1.6207135065       -0.1092157508
 C          4.1811323895       -0.8643178989       -0.4259019785
 C          5.9113186458        0.7562761962        0.1467966008
 C          6.8470918365       -0.2984055299        0.1608684591
 C          5.1586841196       -1.8839231298       -0.3964314704
 H          7.8730775312       -0.0527976940        0.3896916451
 H          4.8350016939       -2.8899595072       -0.6100002610
 C          5.3573806779        3.1016470772        0.3951647158
 H          5.6543228563        4.1179584298        0.6067247118
 C          6.2869636800        2.0904078181        0.4209770471
 H          7.3190213652        2.3083925115        0.6515927806
 C          1.8948807069       -0.1302506045       -0.7635411902
 H          0.8695136645       -0.3799834303       -0.9886189015
 C          2.8272893249       -1.1348253911       -0.7197396653
 H          2.5306167127       -2.1540482573       -0.9179091486
 C          7.5572747655       -2.6994820257       -0.0802581009
 C          8.6307748371       -2.3566065904       -1.1249423158
 H          9.3890520303       -3.1343121509       -1.1337111558
 H          9.1230135517       -1.4125957608       -0.9086377048
 H          8.1908814426       -2.2961819001       -2.1180813577
 C          6.9956476543       -4.0865006242       -0.3968421248
 H          7.8013029547       -4.8146174362       -0.3620966322
 H          6.5643327728       -4.1212060249       -1.3948854326
 H          6.2482266322       -4.3881093865        0.3338380563
 C          8.1860483636       -2.7347813499        1.3213534466
 H          8.9345561304       -3.5208140330        1.3628148664
 H          7.4286868463       -2.9433764242        2.0740372071
 H          8.6727579214       -1.7967951576        1.5733367723
 C         -0.1100595351        2.0560281318       -1.0082889577
 H         -0.1065882846        1.4585693947       -1.9249638914
 H         -0.5583391277        3.0234374571       -1.2604485192
 H          0.4148458487        1.5861604224        1.6036466388
 C         -0.5712436482        1.2440964306        1.3272493181
 C         -3.1378017721        0.3801896583        0.6399959944
 C         -1.3769515275        0.6741482298        2.2892572331
 C         -1.0003536208        1.3999569934        0.0116300499
 C         -2.3088826774        0.9721738473       -0.3500967630
 C         -2.6745591395        0.2253952521        1.9717105432
 C         -4.4407113209       -0.0544610886        0.3091719880
 C         -7.0664420188       -0.9386343731       -0.3671324666
 C         -5.2739722617       -0.6436000256        1.2919585400
 C         -4.9381152221        0.0957012182       -1.0067732486
 C         -6.2419663068       -0.3506996472       -1.3175722699
 C         -6.5673878149       -1.0721352417        0.9290092231
 H         -6.5846942418       -0.2196220631       -2.3314379158
 H         -7.1794657569       -1.5183798717        1.6982482905
 C         -2.8373311649        1.1181124015       -1.6560228877
 H         -2.2395796628        1.5776031108       -2.4274284182
 C         -4.1039022471        0.6969209094       -1.9730002859
 H         -4.4769725852        0.8254924997       -2.9781013848
 C         -3.5215327338       -0.3597109397        2.9389334064
 H         -3.1577891748       -0.4678162273        3.9497716455
 C         -4.7853475057       -0.7838563736        2.6102389030
 H         -5.4210457478       -1.2286994202        3.3610806119
 C         -8.4656131541       -1.4326895579       -0.6817044957
 C         -8.8491850591       -1.2139906452       -2.1461186275
 H         -8.1829890477       -1.7541832670       -2.8152771513
 H         -8.8458921750       -0.1570476862       -2.4030886616
 H         -9.8554857602       -1.5885760484       -2.3121834872
 C         -9.4669425647       -0.6757713279        0.2044507498
 H         -9.2921265378       -0.8556363514        1.2615729478
 H        -10.4761523410       -1.0033953395       -0.0279616463
 H         -9.4042470860        0.3948647776        0.0222518951
 C         -8.5344878415       -2.9378271298       -0.3788093078
 H         -9.5244569244       -3.3116729553       -0.6238040113
 H         -8.3468864961       -3.1510724092        0.6698785804
 H         -7.8059435204       -3.4811066330       -0.9768601597
 H         -1.0188273511        0.5717645330        3.3024623762
