77
       -105.32156051
 H          0.7063789077        4.8470719789        0.2080081004
 C          1.2895447096        3.9396265943        0.2669100560
 C          2.8339115210        1.6198215975        0.4200097520
 C          1.0777611501        2.9327645079       -0.6745778439
 C          2.2310818121        3.8173615747        1.2663329079
 C          3.0252771397        2.6580746613        1.3675636410
 C          1.8610517098        1.7452396132       -0.6081699666
 H          2.3736852656        4.6184501784        1.9756420905
 C          3.6401729225        0.4619814147        0.4955449832
 C          5.2751179598       -1.8702343616        0.6426141423
 C          3.4894524477       -0.5818697710       -0.4462448798
 C          4.6241282710        0.3330910525        1.5080320886
 C          5.4185423611       -0.8327675621        1.5583062029
 C          4.3106883953       -1.7252850313       -0.3514995679
 H          6.1568959804       -0.8974748507        2.3414399666
 H          4.1724551129       -2.5029377600       -1.0874015876
 C          4.0100085616        2.5119161340        2.3694730397
 H          4.1473978955        3.3111686186        3.0823076986
 C          4.7878348155        1.3818801306        2.4393512746
 H          5.5396552244        1.2877311257        3.2085432281
 C          1.7370203591        0.6874123442       -1.5384095648
 H          1.0117846313        0.7674070028       -2.3333888252
 C          2.5200470971       -0.4355163255       -1.4623813992
 H          2.4054744198       -1.2229653051       -2.1923373614
 C          6.1194423359       -3.1301954428        0.6893063327
 C          7.1210580519       -3.1223578565        1.8454620316
 H          7.8268212971       -2.3000264454        1.7529881207
 H          7.6918717729       -4.0467501763        1.8299229333
 H          6.6164614871       -3.0643248954        2.8074059516
 C          6.8972105861       -3.2517123296       -0.6297759045
 H          7.5367001028       -2.3842296637       -0.7770293353
 H          6.2342212533       -3.3401346563       -1.4861138024
 H          7.5256021150       -4.1371814044       -0.6002726093
 C          5.1872941051       -4.3397032133        0.8609929211
 H          4.6080348339       -4.2480941193        1.7773778027
 H          5.7795960242       -5.2481091187        0.9216145569
 H          4.4991417981       -4.4440283522        0.0265119570
 C          0.1137515437        3.1971455269       -1.7955804180
 H          0.7132709712        3.4287357462       -2.6836995628
 H         -0.4464995086        4.1086660800       -1.5565949516
 H         -0.4541111666        2.3611691169       -4.2569512715
 C         -1.0842319079        1.8730990450       -3.5277395789
 C         -2.7460371809        0.6286646034       -1.6625347732
 C         -2.0585659103        1.0045194296       -3.9649416084
 C         -0.8955883090        2.1505370360       -2.1716943818
 C         -1.7374394043        1.5231278929       -1.2126913161
 C         -2.9139499198        0.3617607868       -3.0458299155
 C         -3.6108944381        0.0099365655       -0.7324530896
 C         -5.3609609505       -1.2277091926        1.1482841107
 C         -4.6295667126       -0.8709914948       -1.1733315234
 C         -3.4853418867        0.2696450187        0.6526027493
 C         -4.3637811961       -0.3564893063        1.5647101829
 C         -5.4798112011       -1.4688878785       -0.2215639616
 H         -4.2374731692       -0.1319436793        2.6116325384
 H         -6.2476002016       -2.1344123764       -0.5861841543
 C         -1.6393824297        1.7671171157        0.1776322196
 H         -0.8876437576        2.4512133437        0.5398765180
 C         -2.4793638665        1.1640445544        1.0775668110
 H         -2.3823962599        1.3771243091        2.1317064946
 C         -3.9338109627       -0.5191413556       -3.4663467214
 H         -4.0517808372       -0.7103658161       -4.5224068093
 C         -4.7694857480       -1.1202014745       -2.5571175618
 H         -5.5481466299       -1.7877764621       -2.8944215897
 C         -6.3116065918       -1.9146677455        2.1100262919
 C         -6.1553275626       -3.4354573933        1.9530836782
 H         -5.1316727314       -3.7378852748        2.1639785723
 H         -6.4142985029       -3.7706161864        0.9526722196
 H         -6.8123975011       -3.9410489744        2.6548183342
 C         -7.7491702865       -1.4991671251        1.7615039928
 H         -8.4396666135       -1.9655427633        2.4583538903
 H         -8.0298047703       -1.8053393817        0.7576309775
 H         -7.8634170169       -0.4200223008        1.8369953393
 C         -6.0375901827       -1.5456487471        3.5687589694
 H         -6.7433988239       -2.0683660989        4.2083043329
 H         -6.1678869643       -0.4792740000        3.7390118801
 H         -5.0360285171       -1.8434569179        3.8718181898
 H         -2.1824374479        0.8164392971       -5.0205889497
