77
       -105.32151852
 H          0.3176081951        3.9567712592        1.4339948563
 C          1.0403255247        3.2327655981        1.0851691993
 C          2.9853766208        1.4197850367        0.2426051410
 C          0.9912274916        1.9291362153        1.5740992957
 C          2.0060620390        3.6420000810        0.1888596945
 C          3.0069639948        2.7517654775       -0.2441192653
 C          1.9660524278        0.9890768642        1.1345238525
 H          2.0164602257        4.6613391726       -0.1664076500
 C          4.0116443873        0.5293908892       -0.1453401664
 C          6.1305344172       -1.2415740121       -0.8601329979
 C          4.0324844633       -0.7987633114        0.3392262288
 C          5.0522309133        0.9591924125       -1.0070050013
 C          6.0878075212        0.0611193383       -1.3457074815
 C          5.0910360058       -1.6555552232       -0.0304079959
 H          6.8644784755        0.4227615232       -2.0004457295
 H          5.0799128381       -2.6619228128        0.3602034795
 C          4.0382381982        3.1552656765       -1.1216639699
 H          4.0372867729        4.1695956154       -1.4917613301
 C          5.0346921715        2.2854992339       -1.4913022183
 H          5.8231319541        2.6130536498       -2.1522380917
 C          1.9959821953       -0.3540743871        1.5770801193
 H          1.2182151912       -0.7104602952        2.2328171468
 C          2.9910439661       -1.2174068047        1.1954656608
 H          2.9917597896       -2.2336728644        1.5605700842
 C          7.2541693492       -2.2058831089       -1.1914529024
 C          7.9420194611       -2.6191666280        0.1190409833
 H          7.2595184867       -3.1308582077        0.7922359171
 H          8.3420414463       -1.7469801581        0.6315529353
 H          8.7650454003       -3.2933805822       -0.0997646495
 C          8.3040754885       -1.5880193792       -2.1165473630
 H          7.8716098306       -1.3018592634       -3.0727226731
 H          9.0817299103       -2.3206301666       -2.3144174313
 H          8.7779144247       -0.7236211352       -1.6567109960
 C          6.6617370253       -3.4428643458       -1.8837682504
 H          6.1413541388       -3.1572988123       -2.7954135268
 H          5.9656544225       -3.9746715489       -1.2409874252
 H          7.4620667124       -4.1278424943       -2.1483864896
 C          0.0000303165        1.6015475701        2.6586875349
 H         -0.5765168790        2.5068493882        2.8751356425
 H          0.5772775286        1.3687280177        3.5594908416
 H         -0.3151074626       -0.5844554095        4.1652628883
 C         -1.0388970833       -0.5533297277        3.3631696473
 C         -2.9858268487       -0.4486383131        1.3685162106
 C         -2.0038449018       -1.5376661033        3.3050276531
 C         -0.9916072433        0.4901006847        2.4412043168
 C         -1.9678506103        0.5424922376        1.4061414328
 C         -3.0055036435       -1.5034453751        2.3164280914
 C         -4.0124641095       -0.3750945307        0.4004582478
 C         -6.1306202082       -0.1804745607       -1.5001713942
 C         -5.0514472126       -1.3394127636        0.3759554745
 C         -4.0350810586        0.6758184438       -0.5452336464
 C         -5.0930952201        0.7486995692       -1.4761378784
 C         -6.0868056685       -1.2195343614       -0.5765681751
 H         -5.0831080337        1.5653901370       -2.1821064895
 H         -6.8623079506       -1.9686148982       -0.5641031081
 C         -2.0003804962        1.5642821716        0.4285236792
 H         -1.2244461403        2.3124907938        0.4220003756
 C         -2.9958320522        1.6307802250       -0.5126424076
 H         -2.9985777691        2.4305843048       -1.2381816123
 C         -4.0356513845       -2.4689603228        2.2617698585
 H         -4.0334832059       -3.2714153342        2.9841946317
 C         -5.0324398542       -2.3889208090        1.3204797757
 H         -5.8199377862       -3.1272937305        1.3000880391
 C         -7.2533266960       -0.0241703141       -2.5088069847
 C         -6.6589640171       -0.0580607866       -3.9251436474
 H         -7.4584136249        0.0272142572       -4.6554623399
 H         -6.1375339809       -0.9970916182       -4.0977712473
 H         -5.9633315495        0.7592984682       -4.0941459948
 C         -7.9430458734        1.3268353636       -2.2631167583
 H         -8.7667900329        1.4462029605       -2.9609787414
 H         -7.2619725411        2.1619827708       -2.4026920677
 H         -8.3423750586        1.3731682971       -1.2522771947
 C         -8.3020610167       -1.1319860074       -2.3957522990
 H         -7.8682795796       -2.1106370996       -2.5887925845
 H         -9.0790083601       -0.9656987073       -3.1369051158
 H         -8.7770376174       -1.1296063678       -1.4172054089
 H         -2.0127876052       -2.3297209511        4.0384734805
