77
       -105.32151437
 H          0.6406371001        4.7715891807        0.1377827161
 C          1.2442172577        3.8784731263        0.2097091380
 C          2.8451385740        1.5999058142        0.3933035363
 C          1.0594502214        2.8559069649       -0.7203015243
 C          2.1859496986        3.7912012406        1.2127454118
 C          3.0097953895        2.6542699249        1.3279224569
 C          1.8687085899        1.6872393348       -0.6355331304
 H          2.3072535783        4.6040518571        1.9125877507
 C          3.6823481948        0.4651491894        0.4816580356
 C          5.3850068985       -1.8168023048        0.6497599430
 C          3.5585902320       -0.5938277882       -0.4471024230
 C          4.6716562236        0.3757460112        1.4931905040
 C          5.4998562744       -0.7658931214        1.5540310074
 C          4.4130561170       -1.7117916920       -0.3421019890
 H          6.2414676431       -0.8005190074        2.3359904653
 H          4.2949777165       -2.5017438547       -1.0683519702
 C          3.9985899766        2.5463403201        2.3307539924
 H          4.1144796421        3.3570695908        3.0343919414
 C          4.8074213902        1.4391291678        2.4123368182
 H          5.5626708859        1.3746590463        3.1812305135
 C          1.7687325699        0.6129035865       -1.5496853901
 H          1.0376651865        0.6616100592       -2.3416449300
 C          2.5817589267       -0.4876709146       -1.4610624697
 H          2.4854787176       -1.2880696828       -2.1794887932
 C          6.2678842286       -3.0496439196        0.7061767578
 C          5.3745077013       -4.2858158246        0.8931502237
 H          4.6880252246       -4.4205924669        0.0616820987
 H          4.7947981222       -4.2026226800        1.8100361436
 H          5.9951252256       -5.1745323522        0.9618019523
 C          7.2727033506       -2.9990211165        1.8584827323
 H          6.7698143746       -2.9469203314        2.8216523777
 H          7.9522598175       -2.1561466259        1.7551334970
 H          7.8719031656       -3.9053668231        1.8501358498
 C          7.0446544025       -3.1599846156       -0.6145456754
 H          6.3818843705       -3.2796089827       -1.4672608411
 H          7.7019606843       -4.0239351772       -0.5778685588
 H          7.6547147248       -2.2736011028       -0.7737350255
 C          0.0983497196        3.0867314098       -1.8516464147
 H          0.7006086398        3.3007008435       -2.7421706158
 H         -0.4693335097        3.9993364738       -1.6362354764
 H         -0.4161930200        2.1451682936       -4.2889814874
 C         -1.0634133118        1.6914091267       -3.5525331820
 C         -2.7756590884        0.5366498965       -1.6754817567
 C         -2.0352506040        0.8093371050       -3.9744637113
 C         -0.9023509838        2.0244332109       -2.2079585146
 C         -1.7679554297        1.4392774507       -1.2403694673
 C         -2.9156321389        0.2139945033       -3.0497531186
 C         -3.6682667534       -0.0337465554       -0.7404416097
 C         -5.4822272344       -1.1713133857        1.1437513901
 C         -4.6889643411       -0.9208140455       -1.1661166041
 C         -3.5689670991        0.2828007672        0.6340742033
 C         -4.4783729371       -0.2938008970        1.5459724155
 C         -5.5723780522       -1.4703257518       -0.2118934142
 H         -4.3772248191       -0.0299369639        2.5878776939
 H         -6.3367538818       -2.1408464915       -0.5707474511
 C         -1.6933579127        1.7367219187        0.1401577390
 H         -0.9386577422        2.4233809068        0.4908856666
 C         -2.5598537581        1.1805148179        1.0456956496
 H         -2.4813933863        1.4339161535        2.0924443565
 C         -3.9362178693       -0.6744098354       -3.4549192724
 H         -4.0326422653       -0.9098345196       -4.5042493712
 C         -4.7994578135       -1.2266673875       -2.5402663507
 H         -5.5784357980       -1.8991291842       -2.8669778911
 C         -6.4239677547       -1.7579526928        2.1789119318
 C         -5.5957675274       -2.5465312585        3.2053367972
 H         -4.8933577439       -1.9096471119        3.7361426984
 H         -5.0387749669       -3.3426023777        2.7157484115
 H         -6.2594738163       -2.9959627311        3.9382740088
 C         -7.4582264551       -2.7017236793        1.5627352374
 H         -6.9816470159       -3.5508082652        1.0777321035
 H         -8.0931911403       -2.1822425538        0.8486719538
 H         -8.0998505700       -3.0907647147        2.3485699626
 C         -7.1666646968       -0.6088480320        2.8772492855
 H         -6.4857118312        0.0573206969        3.3999505600
 H         -7.8617461608       -1.0158833877        3.6059443456
 H         -7.7327561154       -0.0253584572        2.1545771523
 H         -2.1365687101        0.5780673221       -5.0239710224
