77
       -105.32154335
 H          0.6401922379        4.7566782509        0.0712090903
 C          1.2484983059        3.8674843453       -0.0092233439
 C          2.8625022758        1.5997160177       -0.2111297649
 C          1.0288218750        2.8108275986        0.8738446186
 C          2.2305246623        3.8186868845       -0.9756337182
 C          3.0620630777        2.6882379684       -1.0985954979
 C          1.8438365616        1.6470053605        0.7786325444
 H          2.3777930433        4.6570507679       -1.6394723703
 C          3.7069197119        0.4708460964       -0.3060193405
 C          5.4263204838       -1.7978228013       -0.4837944979
 C          3.5483846462       -0.6219881432        0.5771042338
 C          4.7383102021        0.4212469361       -1.2774693774
 C          5.5739357768       -0.7146726190       -1.3441656761
 C          4.4117985954       -1.7326660140        0.4680831495
 H          6.3480315029       -0.7185475904       -2.0947840941
 H          4.2661719574       -2.5493094021        1.1589516642
 C          4.0918680574        2.6192586756       -2.0628912182
 H          4.2335901026        3.4553760198       -2.7312021700
 C          4.9078140526        1.5177878125       -2.1509015324
 H          5.6946937251        1.4833846320       -2.8894122224
 C          1.7087957990        0.5387849880        1.6466915946
 H          0.9444287182        0.5561255315        2.4078926856
 C          2.5287963841       -0.5560727690        1.5516015295
 H          2.4049538424       -1.3830761362        2.2348136701
 C          6.3181046053       -3.0239219672       -0.5456039521
 C          5.4414375319       -4.2566666964       -0.8157145410
 H          4.9024981660       -4.1434801768       -1.7540044408
 H          4.7195810946       -4.4239575324       -0.0209194831
 H          6.0698864207       -5.1395730400       -0.8879942203
 C          7.0369912716       -3.1781673037        0.8031878543
 H          7.6986501408       -4.0387406065        0.7654859585
 H          6.3381453670       -3.3287980392        1.6215044292
 H          7.6360104151       -2.2963217564        1.0193470523
 C          7.3721628953       -2.9273749818       -1.6499399516
 H          6.9117103615       -2.8437708212       -2.6319278839
 H          7.9765354754       -3.8303136669       -1.6470435912
 H          8.0408207530       -2.0851626462       -1.4870783581
 C          0.0222300592        2.9977730619        1.9733830285
 H         -0.5349784983        3.9201098398        1.7727601775
 H          0.5873919849        3.1725959184        2.8961297909
 H         -0.5897765899        1.9515559755        4.3450896108
 C         -1.2078240730        1.5325382763        3.5643164654
 C         -2.8467317250        0.4676242275        1.5722350576
 C         -2.1965351082        0.6354010140        3.9082046954
 C         -0.9934276964        1.9241090390        2.2432061342
 C         -1.8211590695        1.3851614508        1.2174566299
 C         -3.0406424223        0.0843190640        2.9241851729
 C         -3.7036198930       -0.0567967154        0.5787021283
 C         -5.4482142769       -1.0982487902       -1.4228846828
 C         -4.7418562145       -0.9582422009        0.9242252906
 C         -3.5508034054        0.3212344508       -0.7752096754
 C         -4.4266676088       -0.2086449625       -1.7463037756
 C         -5.5899611829       -1.4594486679       -0.0869568725
 H         -4.2850773248        0.1019846776       -2.7704489434
 H         -6.3690231521       -2.1425690909        0.2114832866
 C         -1.6920071439        1.7434247000       -0.1444981292
 H         -0.9224469453        2.4416708455       -0.4347048872
 C         -2.5241045758        1.2320006743       -1.1068793974
 H         -2.4044885492        1.5316515518       -2.1373868226
 C         -4.0773565357       -0.8183403536        3.2490648137
 H         -4.2145649115       -1.1006570730        4.2821627843
 C         -4.9054510368       -1.3258939685        2.2777950555
 H         -5.6974318163       -2.0099459134        2.5435041374
 C         -6.3535309804       -1.6299528957       -2.5184593154
 C         -5.4919887923       -2.3749038067       -3.5499705596
 H         -4.7660171068       -1.7189902479       -4.0227225868
 H         -6.1303160709       -2.7832447804       -4.3281075767
 H         -4.9588806258       -3.1980303346       -3.0788935165
 C         -7.0642319291       -0.4442277686       -3.1884457092
 H         -6.3612475289        0.2401311537       -3.6555222652
 H         -7.6520912055        0.1096292336       -2.4598444975
 H         -7.7354766160       -0.8119383507       -3.9591751646
 C         -7.4145307676       -2.5946209543       -1.9857383127
 H         -6.9605054565       -3.4687508687       -1.5241721371
 H         -8.0286287703       -2.9419813450       -2.8120504609
 H         -8.0727970189       -2.1049641186       -1.2716966943
 H         -2.3393868450        0.3582302498        4.9416418386
