77
       -105.32149920
 H          0.7188818971        4.8589556722        0.1424644882
 C          1.2953696378        3.9477674988        0.2086782362
 C          2.8186789847        1.6152701920        0.3770470958
 C          1.0708506806        2.9318654080       -0.7235290078
 C          2.2389095785        3.8278489954        1.2037621121
 C          3.0239814325        2.6611120794        1.3135462987
 C          1.8431944182        1.7402041602       -0.6488705773
 H          2.3922901778        4.6341964698        1.9047543975
 C          3.6132459513        0.4502009660        0.4615565035
 C          5.2188601378       -1.9008447082        0.6234427584
 C          3.4496759235       -0.6033761844       -0.4683859676
 C          4.5985275540        0.3233514759        1.4721243289
 C          5.3773897545       -0.8498547759        1.5285088984
 C          4.2565594380       -1.7584612408       -0.3667265011
 H          6.1211658408       -0.9184390496        2.3079060159
 H          4.1029868455       -2.5387179456       -1.0947563159
 C          4.0105934286        2.5172629150        2.3129445338
 H          4.1582927020        3.3229360981        3.0163816537
 C          4.7775374425        1.3806552631        2.3922438005
 H          5.5313854547        1.2871520554        3.1595220287
 C          1.7075966820        0.6734395262       -1.5685054322
 H          0.9820539802        0.7530656909       -2.3632228530
 C          2.4792976487       -0.4562622455       -1.4829075132
 H          2.3551520518       -1.2496621813       -2.2047924693
 C          6.0910196690       -3.1347135854        0.7555943252
 C          7.5622629260       -2.7148412695        0.6150306290
 H          8.1974080297       -3.5933288340        0.6839127198
 H          7.8645948571       -2.0218875294        1.3951941516
 H          7.7339442243       -2.2431626244       -0.3500285932
 C          5.7808780237       -4.1883450132       -0.3087583496
 H          4.7528974080       -4.5367436771       -0.2342448458
 H          6.4302197633       -5.0469049734       -0.1616392288
 H          5.9643462088       -3.8059120854       -1.3103522708
 C          5.8556981467       -3.7561039146        2.1413700444
 H          4.8091343108       -4.0263165322        2.2659323514
 H          6.1345199348       -3.0792780215        2.9441084915
 H          6.4551660412       -4.6564113597        2.2407697865
 C          0.1019295641        3.1959597834       -1.8401650593
 H          0.6977405537        3.4266965844       -2.7310792885
 H         -0.4566787382        4.1080992678       -1.5996704391
 H         -0.4809098516        2.3562409478       -4.2981350262
 C         -1.1051746200        1.8690808011       -3.5633207278
 C         -2.7533521403        0.6228661013       -1.6869497359
 C         -2.0810887809        0.9955361741       -3.9930927939
 C         -0.9090543848        2.1491891506       -2.2112122765
 C         -1.7463168152        1.5225247004       -1.2444870510
 C         -2.9272733798        0.3519204582       -3.0685498065
 C         -3.6105064059        0.0023124531       -0.7507103130
 C         -5.3456025898       -1.2453742908        1.1377898644
 C         -4.6274332576       -0.8862389810       -1.1822582170
 C         -3.4778594969        0.2677373159        0.6317768207
 C         -4.3490618810       -0.3621893500        1.5455481525
 C         -5.4711772501       -1.4912155043       -0.2257446726
 H         -4.2236627259       -0.1359225946        2.5936299999
 H         -6.2333890000       -2.1618382836       -0.5889912085
 C         -1.6422544228        1.7733439218        0.1432985679
 H         -0.8925099685        2.4629869194        0.4992117846
 C         -2.4750400997        1.1695769664        1.0498277022
 H         -2.3742512875        1.3872941424        2.1026713320
 C         -3.9461127992       -0.5355071319       -3.4799472426
 H         -4.0699266714       -0.7299560833       -4.5347802014
 C         -4.7730440704       -1.1388839498       -2.5639565196
 H         -5.5499526359       -1.8115445134       -2.8951622902
 C         -6.2424474528       -1.8940133496        2.1758411521
 C         -5.3661535279       -2.7008050940        3.1466503584
 H         -5.9971751711       -3.1928008695        3.8811208562
 H         -4.6623720168       -2.0680222878        3.6805615178
 H         -4.8066387097       -3.4647397806        2.6108788567
 C         -7.2719528336       -2.8387087761        1.5531916542
 H         -7.8792173888       -3.2749853384        2.3415184462
 H         -6.7899235667       -3.6553081788        1.0201333353
 H         -7.9412370336       -2.3078118462        0.8800948873
 C         -6.9906356608       -0.7908075880        2.9392743829
 H         -6.3101205879       -0.1296624802        3.4688758008
 H         -7.6553874739       -1.2421451884        3.6701619486
 H         -7.5900081649       -0.1931761315        2.2560976297
 H         -2.2099697049        0.8053207300       -5.0477984590
