77
       -105.32626833
 H          0.9477999435        4.2362593230       -0.7449101189
 C          1.6838313842        3.4552112729       -0.6248238125
 C          3.6046206796        1.4491287267       -0.3291130709
 C          1.2991587582        2.1280123460       -0.7977540269
 C          2.9827749548        3.8006462310       -0.3164511088
 C          3.9760661501        2.8098440452       -0.1753917052
 C          2.2622256194        1.0952125351       -0.6268879883
 H          3.2528082284        4.8384185841       -0.1927888850
 C          4.5885946863        0.4452756788       -0.1902348502
 C          6.5749602422       -1.5842930971        0.0613485677
 C          4.2481271959       -0.9204299411       -0.3325186827
 C          5.9342334801        0.7907722675        0.0875581190
 C          6.8959661607       -0.2336971544        0.2051070450
 C          5.2506720779       -1.9074792593       -0.2028642190
 H          7.9142076323        0.0586049222        0.4126997388
 H          4.9532814011       -2.9372239248       -0.3198417577
 C          5.3208197382        3.1342482520        0.1096101817
 H          5.5910353084        4.1732634678        0.2246626311
 C          6.2751358605        2.1539731084        0.2345528960
 H          7.3001406589        2.4189004623        0.4466889306
 C          1.9459629655       -0.2800227221       -0.7450662980
 H          0.9281408575       -0.5764578189       -0.9461744762
 C          2.9028157037       -1.2519391081       -0.6019725769
 H          2.6322978116       -2.2926589713       -0.7010087402
 C          7.6675970098       -2.6277348318        0.1958696561
 C          8.7375667269       -2.3582451749       -0.8736528778
 H          8.3015661878       -2.4038655443       -1.8692933994
 H          9.5153382159       -3.1135012441       -0.8061797229
 H          9.2046231069       -1.3856051789       -0.7468229266
 C          7.1428729198       -4.0525168082        0.0111536047
 H          6.7175478442       -4.1929038354       -0.9801617154
 H          6.3997133807       -4.3025067881        0.7652698237
 H          7.9665594654       -4.7530779488        0.1170013164
 C          8.2897820131       -2.5134578014        1.5962344919
 H          9.0576656712       -3.2725633806        1.7143488349
 H          7.5340660925       -2.6688950112        2.3632771440
 H          8.7513788007       -1.5436171273        1.7591413917
 C         -0.1110034405        1.8264038462       -1.2097013113
 H         -0.0935777457        1.1143953812       -2.0404455942
 H         -0.5648544168        2.7482770670       -1.5894776420
 H          0.4217888874        1.6010917047        1.4373117916
 C         -0.5740425219        1.2595317942        1.1978153205
 C         -3.1658258392        0.3962704867        0.6110180846
 C         -1.3889765151        0.8056379634        2.2156024472
 C         -1.0069185193        1.2976000227       -0.1224004014
 C         -2.3291570413        0.8662975141       -0.4361200039
 C         -2.6976623117        0.3621826803        1.9494643191
 C         -4.4811719715       -0.0363208321        0.3301401862
 C         -7.1339462738       -0.9166536778       -0.2375019855
 C         -5.3243948295       -0.5044059102        1.3692109182
 C         -4.9807047061       -0.0048469028       -0.9922084210
 C         -6.2966655896       -0.4455772300       -1.2469625551
 C         -6.6330493411       -0.9352688908        1.0595004925
 H         -6.6480441318       -0.4085531418       -2.2670760679
 H         -7.2461159706       -1.2864054108        1.8740693052
 C         -2.8588783238        0.8928130932       -1.7483398249
 H         -2.2530054972        1.2552264142       -2.5637864631
 C         -4.1373834478        0.4737946013       -2.0178972974
 H         -4.5122427913        0.5090159428       -3.0299241504
 C         -3.5542902446       -0.1037868678        2.9726699644
 H         -3.1872608870       -0.1213155694        3.9879723033
 C         -4.8302625229       -0.5259157209        2.6919356528
 H         -5.4720149318       -0.8783867028        3.4854635878
 C         -8.5350635871       -1.3828468868       -0.5852620981
 C         -8.4325807344       -2.5385057660       -1.5930225185
 H         -7.8606631640       -3.3624784599       -1.1716763999
 H         -7.9587446358       -2.2287363566       -2.5204236810
 H         -9.4283439459       -2.9009998112       -1.8313926302
 C         -9.3033789819       -0.2093720324       -1.2124823622
 H         -8.8397196240        0.1348002787       -2.1328852301
 H         -9.3549883122        0.6270170291       -0.5188292809
 H        -10.3169598500       -0.5227862350       -1.4453785534
 C         -9.3107408824       -1.8736203852        0.6382858530
 H         -8.8187346356       -2.7244707862        1.1044810943
 H        -10.3007363994       -2.1967253814        0.3282774373
 H         -9.4392736423       -1.0799164349        1.3708535439
 H         -1.0255400769        0.7932483453        3.2320616728
