77
       -105.32143462
 H          0.6726253865        4.7991324706        0.3528225952
 C          1.2648706121        3.8961638907        0.3839914344
 C          2.8347250414        1.5900629252        0.4648897938
 C          1.0659750689        2.9183813448       -0.5903237220
 C          2.2057040877        3.7517709023        1.3811866563
 C          3.0133172257        2.5992226549        1.4457430167
 C          1.8608252466        1.7371439193       -0.5594974448
 H          2.3381245742        4.5309508046        2.1164127538
 C          3.6552160926        0.4403990869        0.5032096362
 C          5.3224816665       -1.8725958628        0.5721393309
 C          3.5174201690       -0.5741587534       -0.4719849819
 C          4.6412950346        0.2912758287        1.5108489329
 C          5.4518332090       -0.8645151720        1.5220823792
 C          4.3543941035       -1.7086988994       -0.4154795606
 H          6.1914203834       -0.9450868180        2.3025770855
 H          4.2257062453       -2.4637350228       -1.1762461955
 C          3.9992717287        2.4324563970        2.4432542752
 H          4.1262433676        3.2094359663        3.1821721274
 C          4.7914893761        1.3107844153        2.4763042556
 H          5.5445351914        1.2010747565        3.2422284364
 C          1.7481822727        0.7073350371       -1.5221036451
 H          1.0206230385        0.8030444822       -2.3130682546
 C          2.5449630929       -0.4078164954       -1.4820572331
 H          2.4390857935       -1.1732171775       -2.2363730412
 C          6.1858748551       -3.1204253613        0.5751877449
 C          7.1891760159       -3.1364511431        1.7298059845
 H          6.6853797562       -3.1190268159        2.6937543417
 H          7.8820196139       -2.3006173726        1.6645830040
 H          7.7741535929       -4.0508327539        1.6821218639
 C          6.9632979350       -3.1846712635       -0.7481668229
 H          7.5888747829       -2.3027260395       -0.8664964745
 H          6.3003437379       -3.2542644050       -1.6062741186
 H          7.6055281783       -4.0606470762       -0.7495899887
 C          5.2728887731       -4.3494328074        0.7064523527
 H          4.6938279687       -4.2982658266        1.6260959501
 H          5.8793328220       -5.2500389038        0.7352595039
 H          4.5850304403       -4.4359143740       -0.1302965073
 C          0.1040846916        3.2105703955       -1.7064682721
 H          0.7055092252        3.4684782310       -2.5859347847
 H         -0.4599711666        4.1130372919       -1.4436436204
 H         -0.4380217800        2.4199112890       -4.1901292080
 C         -1.0755971122        1.9198374047       -3.4756357916
 C         -2.7613014921        0.6446865481       -1.6531438148
 C         -2.0483388563        1.0601693135       -3.9394785871
 C         -0.9005830105        2.1713346326       -2.1151053040
 C         -1.7545869681        1.5265951741       -1.1754042236
 C         -2.9143469447        0.4039157399       -3.0427408393
 C         -3.6396964252        0.0128596879       -0.7445097848
 C         -5.4243104270       -1.2493658425        1.0875272556
 C         -4.6582049048       -0.8557372145       -1.2115210546
 C         -3.5279601924        0.2481795629        0.6452615636
 C         -4.4229992848       -0.3888757128        1.5306794951
 C         -5.5267402767       -1.4684528046       -0.2824556283
 H         -4.3127339812       -0.1861722400        2.5852687452
 H         -6.2896483271       -2.1230615521       -0.6724681207
 C         -1.6687944525        1.7439380322        0.2193054175
 H         -0.9166246922        2.4160089051        0.6023152861
 C         -2.5219024197        1.1288391163        1.0990156518
 H         -2.4351207479        1.3215795450        2.1579589255
 C         -3.9331228137       -0.4664303023       -3.4894405430
 H         -4.0398483961       -0.6390572964       -4.5499257827
 C         -4.7816598308       -1.0797846612       -2.6002734737
 H         -5.5590153610       -1.7380060535       -2.9583471671
 C         -6.3508234004       -1.9030865942        2.0958881336
 C         -7.3847382646       -2.8170540155        1.4358066707
 H         -6.9072435259       -3.6325348381        0.8970224212
 H         -8.0307997242       -2.2614965408        0.7598860746
 H         -8.0153021040       -3.2564175638        2.2038693100
 C         -7.0942231492       -0.8022919356        2.8674985285
 H         -7.6703588139       -0.1808219169        2.1855759901
 H         -6.4126186362       -0.1637519254        3.4228178938
 H         -7.7801932993       -1.2563060174        3.5768058870
 C         -5.5065862371       -2.7439331356        3.0661766090
 H         -4.9504606722       -3.5069185794        2.5255777163
 H         -6.1594462756       -3.2390407005        3.7791585733
 H         -4.8020161726       -2.1340962705        3.6251503969
 H         -2.1606315591        0.8924939259       -4.9998973037
