77
       -105.32137209
 H          0.6888773554        4.8313631663        0.2402921417
 C          1.2748716624        3.9254696148        0.2950723255
 C          2.8271236843        1.6104202594        0.4376043287
 C          1.0709105532        2.9250817205       -0.6550021567
 C          2.2125955003        3.7993010901        1.2976161228
 C          3.0109189041        2.6424399603        1.3934175188
 C          1.8577310143        1.7396153008       -0.5934481418
 H          2.3492329238        4.5956915647        2.0133676466
 C          3.6376294332        0.4552012013        0.5078714859
 C          5.2821152269       -1.8710971119        0.6435579951
 C          3.4945483858       -0.5824284726       -0.4419525071
 C          4.6185312455        0.3229614300        1.5229077122
 C          5.4177280925       -0.8398937714        1.5674458634
 C          4.3203705546       -1.7230156748       -0.3527195379
 H          6.1534342406       -0.9073074185        2.3528440518
 H          4.1879386273       -2.4958691935       -1.0947252389
 C          3.9924588409        2.4928790930        2.3979669563
 H          4.1239325352        3.2874183878        3.1171571121
 C          4.7746665957        1.3655527551        2.4624140264
 H          5.5241861575        1.2688897263        3.2335353969
 C          1.7409066817        0.6876911850       -1.5312990045
 H          1.0179400186        0.7702844407       -2.3279874986
 C          2.5281110711       -0.4327010775       -1.4603771525
 H          2.4190987114       -1.2154374581       -2.1962284546
 C          6.1322466999       -3.1273232306        0.6834755929
 C          7.1283792099       -3.1246302629        1.8443658834
 H          7.7034366502       -4.0462925129        1.8239028464
 H          6.6189635183       -3.0768189072        2.8043382495
 H          7.8308815032       -2.2984265812        1.7620690791
 C          6.9167422548       -3.2332831800       -0.6329770865
 H          7.5529653451       -2.3616107087       -0.7692836587
 H          6.2580922428       -3.3167360884       -1.4931673618
 H          7.5489728308       -4.1161683642       -0.6086251072
 C          5.2055380155       -4.3430155111        0.8401674871
 H          4.6210419956       -4.2620754711        1.7542289326
 H          5.8022646665       -5.2488044795        0.8963338479
 H          4.5223161363       -4.4440228270        0.0012481818
 C          0.1119734005        3.1961485107       -1.7788515711
 H          0.7157714929        3.4365176264       -2.6617205606
 H         -0.4515890323        4.1043651262       -1.5352269688
 H         -0.4365503624        2.3720537057       -4.2494029849
 C         -1.0714891433        1.8807315493       -3.5265735467
 C         -2.7487801421        0.6259446179       -1.6822773491
 C         -2.0440386610        1.0133484321       -3.9761220733
 C         -0.8930832449        2.1507143922       -2.1699801286
 C         -1.7436123521        1.5174439911       -1.2193187381
 C         -2.9055433504        0.3666454457       -3.0681332678
 C         -3.6216038804        0.0024414516       -0.7625831609
 C         -5.3913354491       -1.2474927045        1.0921224993
 C         -4.6379461222       -0.8764367176       -1.2148504261
 C         -3.5059544854        0.2558884065        0.6236700519
 C         -4.3938276304       -0.3751933811        1.5204901134
 C         -5.4991123302       -1.4827045775       -0.2747789718
 H         -4.2808549721       -0.1584608403        2.5719943776
 H         -6.2604273352       -2.1456484800       -0.6536527951
 C         -1.6553007355        1.7546201230        0.1719913932
 H         -0.9055577078        2.4358175641        0.5435653139
 C         -2.5030040157        1.1476295119        1.0624515349
 H         -2.4141379358        1.3551737552        2.1184185229
 C         -3.9231394645       -0.5124071489       -3.5001949823
 H         -4.0333048969       -0.6984053718       -4.5580642094
 C         -4.7660404987       -1.1178195438       -2.6002844361
 H         -5.5422700895       -1.7832884510       -2.9472267061
 C         -6.3082307644       -1.8962205384        2.1124664158
 C         -5.4528660247       -2.7177623264        3.0895175396
 H         -4.7513467787       -2.0951269600        3.6381265759
 H         -4.8923551201       -3.4825736276        2.5560619015
 H         -6.0985495237       -3.2096347907        3.8112228398
 C         -7.3369243991       -2.8271919781        1.4681539621
 H         -7.9595318115       -3.2634608687        2.2444229726
 H         -6.8545173559       -3.6443804938        0.9363605527
 H         -7.9915065566       -2.2855219567        0.7891927437
 C         -7.0577301687       -0.7921869342        2.8734453708
 H         -7.7366882957       -1.2430972303        3.5914288327
 H         -7.6421424184       -0.1843165717        2.1863440379
 H         -6.3792035094       -0.1409062741        3.4176288184
 H         -2.1591970671        0.8315159290       -5.0338914334
