77
       -105.32127427
 H          0.7211774267        4.8694997937        0.1055186262
 C          1.2979274681        3.9587711714        0.1756679266
 C          2.8244081575        1.6293642372        0.3583213263
 C          1.0695956183        2.9366344664       -0.7453535483
 C          2.2474843318        3.8473067137        1.1686973224
 C          3.0323723209        2.6830852855        1.2850783162
 C          1.8448686131        1.7446640236       -0.6647314638
 H          2.4029731286        4.6601787006        1.8617086113
 C          3.6203770072        0.4655443277        0.4497267392
 C          5.2315711552       -1.8807936259        0.6312729549
 C          3.4531723207       -0.5941145448       -0.4713996880
 C          4.6099954129        0.3458539397        1.4578211672
 C          5.3923647830       -0.8272697865        1.5254992753
 C          4.2628755492       -1.7442332302       -0.3598620736
 H          6.1352503713       -0.8847323957        2.3049016807
 H          4.1119107614       -2.5341320333       -1.0800474747
 C          4.0234618639        2.5465474057        2.2820368625
 H          4.1739231988        3.3578193593        2.9784652653
 C          4.7909089163        1.4104949197        2.3677048790
 H          5.5475181656        1.3235910997        3.1330436278
 C          1.7060198611        0.6719835118       -1.5756642612
 H          0.9773028475        0.7448701616       -2.3680713084
 C          2.4793350442       -0.4565491006       -1.4844805063
 H          2.3533053997       -1.2555240803       -2.1998789049
 C          6.0612085347       -3.1495772247        0.6982258113
 C          6.8283196468       -3.3080692813       -0.6231225234
 H          7.4464826764       -4.2001088830       -0.5790694160
 H          7.4769119868       -2.4515519504       -0.7929529407
 H          6.1584897836       -3.4067329972       -1.4729855126
 C          5.1154737386       -4.3436057319        0.9013080370
 H          4.4200146778       -4.4563116536        0.0739929913
 H          4.5440796601       -4.2260383396        1.8196720336
 H          5.6969353689       -5.2579109096        0.9764136313
 C          7.0707291370       -3.1300418756        1.8473509158
 H          7.7854910784       -2.3182661599        1.7333233396
 H          7.6304427700       -4.0613235271        1.8470377795
 H          6.5734571604       -3.0463195828        2.8112140425
 C          0.0949231299        3.1885836871       -1.8598903185
 H          0.6859550211        3.4099152188       -2.7563378744
 H         -0.4622966066        4.1033421436       -1.6261228465
 H         -0.5066714991        2.3324152777       -4.3064471924
 C         -1.1249123560        1.8495894992       -3.5637203648
 C         -2.7575561998        0.6141192325       -1.6669670853
 C         -2.1038199509        0.9731085187       -3.9805215345
 C         -0.9184782630        2.1385427734       -2.2149969165
 C         -1.7477578610        1.5172614666       -1.2379327334
 C         -2.9423820388        0.3347749623       -3.0454653431
 C         -3.6065399435       -0.0017933108       -0.7202471120
 C         -5.3245374402       -1.2408198062        1.1895777594
 C         -4.6262073020       -0.8936377965       -1.1383588320
 C         -3.4628330830        0.2715560857        0.6595800880
 C         -4.3254558908       -0.3545026532        1.5841126647
 C         -5.4614028929       -1.4940809340       -0.1714987042
 H         -4.1912005002       -0.1226971455        2.6298866876
 H         -6.2259885514       -2.1673761295       -0.5246729469
 C         -1.6331998720        1.7765888289        0.1474722994
 H         -0.8817196358        2.4693716684        0.4932815923
 C         -2.4579940652        1.1772082743        1.0641901092
 H         -2.3491526599        1.4014566594        2.1148581134
 C         -3.9639831278       -0.5555956508       -3.4434719124
 H         -4.0961854773       -0.7562192231       -4.4961307607
 C         -4.7830941881       -1.1541455879       -2.5173430766
 H         -5.5623258108       -1.8290581868       -2.8383512427
 C         -6.2112213440       -1.8854762069        2.2387565183
 C         -7.2480996126       -2.8308962769        1.6295893069
 H         -6.7725806574       -3.6503097607        1.0950156652
 H         -7.9229462142       -2.3014005220        0.9609427065
 H         -7.8484358408       -3.2632456859        2.4253482846
 C         -6.9503905604       -0.7798197603        3.0073445765
 H         -7.5557218798       -0.1827068974        2.3289844676
 H         -6.2639911961       -0.1185337544        3.5291058794
 H         -7.6084951840       -1.2288920560        3.7456057169
 C         -5.3250813561       -2.6904479100        3.2021769574
 H         -4.7727805966       -3.4569444490        2.6625889459
 H         -5.9484058076       -3.1790949285        3.9453986808
 H         -4.6143017852       -2.0568784079        3.7258163893
 H         -2.2409099690        0.7764765474       -5.0330149715
