77
       -105.32003584
 H          0.9226285163        5.1230438783        0.0171801119
 C          1.4277159202        4.1712511608        0.0925855229
 C          2.7527543294        1.7235001627        0.3015479362
 C          1.1001672482        3.1551515531       -0.8052312954
 C          2.3809153961        3.9988685347        1.0730075991
 C          3.0574949589        2.7702136047        1.2094556344
 C          1.7884692131        1.9103573739       -0.7252541327
 H          2.6150229236        4.8081480202        1.7478578169
 C          3.4326299158        0.4905505997        0.4195357556
 C          4.7744701062       -2.0118022653        0.6836722885
 C          3.1687223402       -0.5651881482       -0.4832037057
 C          4.3960308461        0.2928050039        1.4406385246
 C          5.0439728216       -0.9566453359        1.5495280791
 C          3.8466973967       -1.7930781611       -0.3314497110
 H          5.7690635517       -1.0733638249        2.3389997579
 H          3.6240354098       -2.5782219294       -1.0380919064
 C          4.0320354335        2.5606791044        2.2098119691
 H          4.2627335270        3.3695367766        2.8868156568
 C          4.6812978363        1.3555193461        2.3257478538
 H          5.4225005347        1.2109434477        3.0974168047
 C          1.5713397372        0.8486032193       -1.6335812323
 H          0.8741711193        0.9839349477       -2.4460486943
 C          2.2334770827       -0.3462529336       -1.5181125444
 H          2.0470154628       -1.1367961448       -2.2296622322
 C          5.4434234643       -3.3682597121        0.8072066561
 C          6.2079905912       -3.6657863540       -0.4911231327
 H          6.9584284667       -2.9005273011       -0.6760061853
 H          5.5459547141       -3.7140827494       -1.3513464096
 H          6.7126918250       -4.6235868617       -0.4034565899
 C          4.3539452198       -4.4293581057        1.0285714450
 H          3.6629837597       -4.4826485165        0.1914792755
 H          3.7870776560       -4.2118779293        1.9314727345
 H          4.8163856585       -5.4053843828        1.1434261613
 C          6.4266547184       -3.4324195824        1.9772796389
 H          7.2387596552       -2.7199998673        1.8523411018
 H          6.8659844981       -4.4252201157        2.0205662200
 H          5.9262800881       -3.2532352555        2.9264548247
 C          0.0978547408        3.4582059176       -1.8806834706
 H          0.6635334571        3.7001444102       -2.7885979686
 H         -0.4350411010        4.3757674409       -1.6033077301
 H         -0.6981009922        2.8051905013       -4.3289360357
 C         -1.2459254069        2.2476122013       -3.5834809113
 C         -2.6811990777        0.8022011853       -1.6751666616
 C         -2.2286534847        1.3731265466       -3.9946422725
 C         -0.9419306279        2.4353146197       -2.2350830338
 C         -1.6856696916        1.7229622285       -1.2506666544
 C         -2.9612834422        0.6216089959       -3.0541925292
 C         -3.4168977458        0.0640136308       -0.7211535854
 C         -4.8726752629       -1.4565331667        1.2025692866
 C         -4.4118565177       -0.8579429785       -1.1334012241
 C         -3.1781389067        0.2371873626        0.6616607392
 C         -3.9125482098       -0.5266374618        1.5931164268
 C         -5.1161583019       -1.5988508798       -0.1598380843
 H         -3.7078301722       -0.3693617724        2.6413184897
 H         -5.8640752184       -2.2929259385       -0.5084430328
 C         -1.4937281434        1.8995715203        0.1391145604
 H         -0.7722822816        2.6241949612        0.4839345356
 C         -2.2100175727        1.1834175051        1.0629630826
 H         -2.0415236082        1.3434086640        2.1174971842
 C         -3.9673941294       -0.2888518124       -3.4455349377
 H         -4.1784591555       -0.4079917163       -4.4977059071
 C         -4.6712340129       -1.0115999970       -2.5129916276
 H         -5.4360494635       -1.7051394491       -2.8289300099
 C         -5.6030481593       -2.2667982626        2.2574433345
 C         -6.6151477506       -3.2407503405        1.6516363611
 H         -6.1296730000       -3.9616106466        0.9973487665
 H         -7.3922330030       -2.7143798754        1.1023299288
 H         -7.0983120231       -3.7965070780        2.4505261823
 C         -6.3494367561       -1.3055734722        3.1943002784
 H         -7.0612044521       -0.7030018977        2.6346084325
 H         -5.6702733652       -0.6385906937        3.7182103204
 H         -6.8974139278       -1.8766259409        3.9382163689
 C         -4.5665576562       -3.0751969967        3.0537258381
 H         -4.0118340346       -3.7393745363        2.3941672028
 H         -5.0738722650       -3.6808744633        3.7990161159
 H         -3.8593359349       -2.4316831983        3.5701714107
 H         -2.4430753187        1.2561927603       -5.0460755855
