77
       -105.32619873
 H         -0.2619103543        0.0000837642       -1.5695233335
 C          0.7680035176       -0.0671017516       -1.2519844637
 C          3.4360312363       -0.2570215944       -0.4464891999
 C          1.1132724713        0.3605724908        0.0275364404
 C          1.7074886263       -0.5700625035       -2.1260767560
 C          3.0627998754       -0.6661412152       -1.7523851810
 C          2.4649811132        0.2486780790        0.4587404275
 H          1.4102755600       -0.8917514289       -3.1127566662
 C          4.7896779664       -0.3569768999       -0.0543838659
 C          7.5239630205       -0.5370417463        0.7369158739
 C          5.1940332927        0.0307105802        1.2446636398
 C          5.7664388699       -0.8460120235       -0.9567233946
 C          7.1114400735       -0.9203549996       -0.5396616359
 C          6.5538358110       -0.0697377820        1.6140355663
 H          7.8345789285       -1.2910850754       -1.2503988709
 H          6.8219180243        0.2336509710        2.6133414254
 C          4.0491377700       -1.1595939068       -2.6349984225
 H          3.7508196856       -1.4702902019       -3.6250828280
 C          5.3647704629       -1.2443187183       -2.2514134532
 H          6.1075159873       -1.6198638116       -2.9392143371
 C          2.8971674328        0.6146191748        1.7569070854
 H          2.1820425495        0.9812473502        2.4764468231
 C          4.2108854244        0.5080823968        2.1370477596
 H          4.5065371600        0.7953671429        3.1350538650
 C          8.9908602512       -0.6388249961        1.1092689746
 C          9.4467197145       -2.0967218238        0.9439596046
 H         10.4873724079       -2.1867778545        1.2419257537
 H          9.3642247844       -2.4357605782       -0.0848401868
 H          8.8526721510       -2.7559781617        1.5731916886
 C          9.2610735529       -0.2062935707        2.5513158400
 H          8.9900369834        0.8350255090        2.7107694815
 H         10.3225729262       -0.3042679517        2.7615065074
 H          8.7261629033       -0.8350750848        3.2597525795
 C          9.7963425503        0.2697268787        0.1670062698
 H          9.4651971107        1.3020666225        0.2572671616
 H          9.6978427192       -0.0335046110       -0.8717239608
 H         10.8489242765        0.2239963187        0.4312945010
 C          0.0636794661        0.9228506663        0.9473792316
 H          0.4794056116        1.8026299411        1.4483822533
 H         -0.1477111016        0.1857832409        1.7262339297
 H         -0.2071470075        3.0940569123       -0.5129583091
 C         -1.1470032055        2.5657117355       -0.4486019637
 C         -3.5812033156        1.2148461718       -0.2593133816
 C         -2.2640922714        3.1031704624       -1.0462723127
 C         -1.1948608292        1.3634641057        0.2587427516
 C         -2.4196486670        0.6479233926        0.3341541107
 C         -3.5113851859        2.4516248648       -0.9505531939
 C         -4.8251903575        0.5522233694       -0.1613367293
 C         -7.3405615766       -0.7721647903        0.0739782582
 C         -5.9915094977        1.1224848149       -0.7284312366
 C         -4.9300964828       -0.6890204434        0.5100536558
 C         -6.1867817890       -1.3265823569        0.6116336183
 C         -7.2218973255        0.4473574797       -0.5943742975
 H         -6.2253743636       -2.2710894464        1.1302332862
 H         -8.0944082342        0.9087655642       -1.0316590261
 C         -2.5511606025       -0.6101687071        0.9728356787
 H         -1.6829015308       -1.0898541747        1.3972921767
 C         -3.7588986713       -1.2539711889        1.0582764300
 H         -3.8243453980       -2.2099563247        1.5561281176
 C         -4.6820050339        2.9982757822       -1.5205634793
 H         -4.6124722902        3.9391122378       -2.0456748219
 C         -5.8907329196        2.3563524041       -1.4090555187
 H         -6.7787644054        2.7912699727       -1.8425926271
 C         -8.7028743912       -1.4291389296        0.1862494154
 C         -8.6517129303       -2.7596755011        0.9385661418
 H         -8.2997786848       -2.6249004347        1.9589867606
 H         -8.0175966864       -3.4803251124        0.4267523601
 H         -9.6522142296       -3.1802723605        0.9895484146
 C         -9.2476257313       -1.6873394735       -1.2272846254
 H        -10.2117985621       -2.1828032846       -1.1585368386
 H         -8.5709623900       -2.3312109507       -1.7850252713
 H         -9.3852798648       -0.7658932814       -1.7860343782
 C         -9.6434120160       -0.4760215086        0.9405737980
 H        -10.6192220728       -0.9406331224        1.0491797948
 H         -9.7777188634        0.4648097281        0.4140461583
 H         -9.2533546072       -0.2623103302        1.9333888352
 H         -2.1986740352        4.0397265048       -1.5788068179
