77
       -105.32620027
 H         -0.3112055690        1.3957244345       -1.5339339220
 C          0.6643458064        1.0483834433       -1.2284831540
 C          3.2063825934        0.1677274612       -0.4735115023
 C          1.0488788824        1.1816623462        0.1003565853
 C          1.5028140298        0.4921584269       -2.1739730749
 C          2.7880763613        0.0396984755       -1.8227284067
 C          2.3440030739        0.7387543191        0.4998704173
 H          1.1766411347        0.4061893001       -3.1994804871
 C          4.4981441153       -0.2726957273       -0.1080578905
 C          7.1065572939       -1.1603552380        0.6287820112
 C          4.9475105538       -0.1512196372        1.2270130391
 C          5.3679729167       -0.8383780102       -1.0740716508
 C          6.6538585447       -1.2701466161       -0.6813494731
 C          6.2422555181       -0.5979566260        1.5661825534
 H          7.2886213421       -1.6957139759       -1.4420205467
 H          6.5553700743       -0.4905516182        2.5937556876
 C          3.6696228852       -0.5258192722       -2.7719517822
 H          3.3402257830       -0.6154927985       -3.7963107410
 C          4.9231528241       -0.9528461527       -2.4094638604
 H          5.5850154019       -1.3807864397       -3.1474123066
 C          2.8220295634        0.8496735355        1.8274027203
 H          2.1939404757        1.2848247360        2.5886453501
 C          4.0772107985        0.4213020546        2.1794370491
 H          4.4126766083        0.5225300861        3.2007984714
 C          8.4845437037       -1.6215772836        1.0645289262
 C          9.2514404257       -0.4149195815        1.6274761188
 H          9.3424622324        0.3644980686        0.8740716959
 H         10.2504037307       -0.7248020745        1.9204863105
 H          8.7619288377        0.0063349031        2.5012759811
 C          9.2949398594       -2.2184899774       -0.0872457797
 H          9.4656826341       -1.4861779423       -0.8732010979
 H          8.8039699068       -3.0946627606       -0.5051118432
 H         10.2664098639       -2.5329359382        0.2841885801
 C          8.3241666224       -2.6931900176        2.1541371733
 H          7.7563141095       -3.5402943809        1.7753704668
 H          7.8191961437       -2.3058529463        3.0347622256
 H          9.3039563795       -3.0484978532        2.4600003907
 C          0.1320704701        1.8214676949        1.1077269997
 H          0.6207032782        2.7352543383        1.4625999840
 H          0.0306273384        1.1584866546        1.9725677292
 H         -0.7388800893        4.2540599989        0.4301259503
 C         -1.5192772343        3.5149154269        0.3259401136
 C         -3.5580183308        1.6238155394        0.0668001153
 C         -2.7785237685        3.9222641993       -0.0689398409
 C         -1.2342668472        2.1832345144        0.6056422312
 C         -2.2581713805        1.2042443685        0.4547484450
 C         -3.8282647343        2.9920704599       -0.1930189269
 C         -4.6004619849        0.6787255494       -0.0586212872
 C         -6.7083162065       -1.2266279165       -0.2952977022
 C         -5.9062260151        1.0896016964       -0.4272550077
 C         -4.3587089011       -0.6925060840        0.1866628851
 C         -5.4191220263       -1.6151074431        0.0627434451
 C         -6.9318150453        0.1247957948       -0.5355747474
 H         -5.2031764884       -2.6545981661        0.2584474136
 H         -7.9135827617        0.4723735153       -0.8147131525
 C         -2.0409401036       -0.1762979243        0.6777947342
 H         -1.0562747662       -0.5233769084        0.9500366306
 C         -3.0535030360       -1.0923154449        0.5476594923
 H         -2.8590206036       -2.1392633092        0.7269916005
 C         -5.1349295227        3.3819596391       -0.5644800702
 H         -5.3291947929        4.4263186979       -0.7579869428
 C         -6.1462856880        2.4588368114       -0.6751623109
 H         -7.1402792396        2.7746290524       -0.9545667707
 C         -7.8004620007       -2.2738127821       -0.4081978329
 C         -7.3865830196       -3.3033321399       -1.4712314385
 H         -6.4712531414       -3.8223897560       -1.2002057181
 H         -7.2367498527       -2.8186502215       -2.4336009282
 H         -8.1716932282       -4.0457033412       -1.5818982443
 C         -9.1484329575       -1.6742248426       -0.8116478485
 H         -9.5005685023       -0.9572955635       -0.0733571156
 H         -9.8876755979       -2.4679320909       -0.8760860307
 H         -9.0940739005       -1.1962863052       -1.7872731142
 C         -7.9618073663       -2.9653290538        0.9543556686
 H         -8.2237154759       -2.2399414653        1.7214958132
 H         -7.0539968724       -3.4779060343        1.2605986051
 H         -8.7580855026       -3.7017116780        0.8952538512
 H         -2.9703112502        4.9646326105       -0.2737726581
