77
       -105.32618491
 H         -0.3234096516        1.4120617719       -0.4519707148
 C          0.7086111111        1.1361926683       -0.2946615911
 C          3.3861738822        0.4516455140        0.1126693638
 C          1.0828845160       -0.1966498988       -0.4200224805
 C          1.6238631644        2.1205023476        0.0204424229
 C          2.9809392257        1.8066372961        0.2199487822
 C          2.4417012879       -0.5640776566       -0.1945694312
 H          1.3024040675        3.1472197811        0.1096494943
 C          4.7453749162        0.1217815013        0.3128920837
 C          7.4950078411       -0.5397549480        0.6837951141
 C          5.1799827671       -1.2204830000        0.2208295695
 C          5.6975519797        1.1303616933        0.6061732115
 C          7.0526279184        0.7746932966        0.7835481424
 C          6.5453435775       -1.5220171430        0.4093801642
 H          7.7498352068        1.5679012644        1.0012846223
 H          6.8446665138       -2.5563405480        0.3316911639
 C          3.9426314371        2.7969781732        0.5238698617
 H          3.6204494386        3.8241996052        0.6067612080
 C          5.2632046773        2.4701463947        0.7088717156
 H          5.9859188996        3.2394804420        0.9360108152
 C          2.9028132154       -1.9006542653       -0.2597398751
 H          2.2072569883       -2.6986980711       -0.4665374515
 C          4.2222808070       -2.2188624704       -0.0588946013
 H          4.5416569022       -3.2486898387       -0.1174412900
 C          8.9494084066       -0.9342728145        0.8584321025
 C          9.4317251337       -1.6121111688       -0.4336684219
 H         10.4820698367       -1.8713739841       -0.3369307631
 H          9.3224875577       -0.9389822935       -1.2813042736
 H          8.8804205137       -2.5242716340       -0.6448582948
 C          9.0574623743       -1.9165696265        2.0350544594
 H         10.0974292455       -2.1939668988        2.1811368326
 H          8.4899662135       -2.8262379291        1.8589271839
 H          8.6945862257       -1.4555947214        2.9511464698
 C          9.8529933862        0.2665497342        1.1431500790
 H         10.8783634949       -0.0755940486        1.2534352352
 H          9.5719182785        0.7642209457        2.0686064521
 H          9.8318378073        0.9813633263        0.3234478937
 C          0.0645270205       -1.2430098492       -0.7857764435
 H         -0.1396000561       -1.8558168898        0.0965857368
 H          0.5065046266       -1.9041869885       -1.5370162013
 H         -0.2971406641       -0.4980256749       -3.2893615915
 C         -1.2111401737       -0.3838646470       -2.7253943548
 C         -3.5808213416       -0.1081653134       -1.2773891807
 C         -2.3491690552        0.0469595501       -3.3696196627
 C         -1.2077224887       -0.6981528021       -1.3664050853
 C         -2.3986565454       -0.5303017878       -0.6098270014
 C         -3.5649301577        0.1773177373       -2.6668841019
 C         -4.7910404546        0.0281694692       -0.5613703261
 C         -7.2363611449        0.2771525266        0.8853268737
 C         -5.9780792309        0.4277536192       -1.2234899327
 C         -4.8400848659       -0.2359158983        0.8279409652
 C         -6.0635482974       -0.1054239938        1.5224887208
 C         -7.1729367422        0.5410176932       -0.4837123489
 H         -6.0607659272       -0.3168637518        2.5797600704
 H         -8.0621387549        0.8444449646       -1.0153520200
 C         -2.4728751115       -0.7606344525        0.7862344731
 H         -1.5848660182       -1.0435130249        1.3299350235
 C         -3.6480737476       -0.6195512667        1.4788785716
 H         -3.6712616217       -0.8064402565        2.5421739895
 C         -4.7562189696        0.5821750703       -3.3081108076
 H         -4.7289454871        0.7958322115       -4.3661118593
 C         -5.9323580734        0.6998847142       -2.6090329367
 H         -6.8366185492        1.0034682616       -3.1148853453
 C         -8.5614796099        0.4190263983        1.6093789786
 C         -9.0484240926        1.8695090139        1.4642827387
 H         -8.3204974542        2.5599992928        1.8849156346
 H         -9.9852892380        1.9922031237        2.0000700471
 H         -9.2195066195        2.1397587738        0.4260029156
 C         -8.4538301332        0.0881524464        3.0986471746
 H         -9.4296414921        0.2042326185        3.5621027130
 H         -7.7667374935        0.7617586355        3.6061260289
 H         -8.1365373448       -0.9407051614        3.2538741994
 C         -9.5782816181       -0.5380193059        0.9679078584
 H         -9.7564437377       -0.3029148310       -0.0776930337
 H        -10.5263715419       -0.4639157215        1.4928240681
 H         -9.2291966218       -1.5661467210        1.0351413156
 H         -2.3239270071        0.2726958799       -4.4248196059
