77
       -105.32645706
 H         -0.3271052412        1.6323393145       -0.9698421445
 C          0.6648434402        1.3012614376       -0.7015407851
 C          3.2466983386        0.4776772606       -0.0207641722
 C          1.0638513340        0.0090383208       -1.0309173176
 C          1.5082819118        2.1754315663       -0.0494232080
 C          2.8159414794        1.7891128106        0.3056870621
 C          2.3760151124       -0.4241612254       -0.6883373357
 H          1.1719070599        3.1729526966        0.1896915274
 C          4.5583461183        0.0785503453        0.3200911643
 C          7.2078210989       -0.7301793729        0.9981879786
 C          5.0216118770       -1.2200637061        0.0031062746
 C          5.4341851470        0.9747092491        0.9812103357
 C          6.7382618274        0.5472040179        1.3055733039
 C          6.3385952742       -1.5971344232        0.3486887166
 H          7.3830564877        1.2507640746        1.8102904524
 H          6.6554450929       -2.5944118957        0.0886619522
 C          3.7030223815        2.6680376188        0.9660065870
 H          3.3626561764        3.6636934972        1.2081127182
 C          4.9764060964        2.2739225853        1.2953127261
 H          5.6433114314        2.9581132713        1.7982071983
 C          2.8658676348       -1.7184404893       -0.9892709189
 H          2.2294483293       -2.4274425214       -1.4949435581
 C          4.1405018660       -2.1023749634       -0.6572636822
 H          4.4837515918       -3.0959735046       -0.9040469502
 C          8.6236286255       -1.1163551273        1.3817265636
 C          8.9780515318       -2.5421423496        0.9562982898
 H         10.0001129017       -2.7605282477        1.2533199885
 H          8.9174962926       -2.6596206425       -0.1234587808
 H          8.3327862905       -3.2725280917        1.4394792436
 C          8.7622278192       -1.0130502932        2.9088470773
 H          8.0537320973       -1.6752816158        3.4018384925
 H          8.5921923097       -0.0006823011        3.2648361848
 H          9.7658700774       -1.3069376900        3.2023282073
 C          9.6027038836       -0.1466377072        0.7021137203
 H          9.4556549587        0.8783483000        1.0309597596
 H          9.4861734926       -0.1818515109       -0.3789186789
 H         10.6222459015       -0.4318513745        0.9450960173
 C          0.1375200100       -0.9197266402       -1.7688879977
 H          0.0163742388       -1.8379490766       -1.1857774258
 H          0.6294778645       -1.2004262721       -2.7060739661
 H         -0.6276019201        0.1104366587       -4.1038277298
 C         -1.4398982802        0.1148795206       -3.3922065678
 C         -3.5556510817        0.1141999003       -1.5698256220
 C         -2.6767626202        0.5755655930       -3.7904127689
 C         -1.2131667432       -0.3589683237       -2.1020780284
 C         -2.2750408976       -0.3396600048       -1.1562444671
 C         -3.7668722072        0.5716633680       -2.8961327131
 C         -4.6378930852        0.1078027641       -0.6620684599
 C         -6.8251328560        0.0632587310        1.1663078210
 C         -5.9235112659        0.5388488915       -1.0726663413
 C         -4.4576128521       -0.3346024623        0.6696187917
 C         -5.5571866451       -0.3464734674        1.5568272766
 C         -6.9873122563        0.5042346481       -0.1478503931
 H         -5.3812041314       -0.6918137086        2.5629591758
 H         -7.9568439930        0.8338937618       -0.4894442889
 C         -2.1183913117       -0.7560258665        0.1883893425
 H         -1.1490644556       -1.0772640777        0.5368277422
 C         -3.1698429067       -0.7524471123        1.0689104526
 H         -3.0201496120       -1.0787039119        2.0873543769
 C         -5.0534319692        1.0061619764       -3.2843870953
 H         -5.2008662519        1.3523413779       -4.2964195567
 C         -6.1044774415        0.9872541235       -2.4001693948
 H         -7.0836373637        1.3164387530       -2.7143004279
 C         -8.0212639436        0.0477569568        2.0988910364
 C         -7.6676729713       -0.4626098699        3.4966714346
 H         -6.9268593821        0.1738371877        3.9757970162
 H         -7.3018381773       -1.4865184544        3.4638811287
 H         -8.5596454037       -0.4525251894        4.1169539409
 C         -9.0972946809       -0.8715631747        1.5001711694
 H         -9.9503898432       -0.9154981375        2.1711295583
 H         -8.7095643056       -1.8800003646        1.3729189282
 H         -9.4486038032       -0.5138446977        0.5363748145
 C         -8.5689182918        1.4779829540        2.2244687416
 H         -7.8052046562        2.1457208583        2.6174615433
 H         -9.4127172829        1.4837784564        2.9084415420
 H         -8.9102249050        1.8689868157        1.2700906737
 H         -2.8240993813        0.9309557349       -4.7989385446
