77
       -105.32613814
 H         -0.2696415105        2.0642848560       -1.0533119735
 C          0.6838183653        1.6486142016       -0.7636297100
 C          3.1682231543        0.6090530311       -0.0201391923
 C          1.0829296727        0.4281896154       -1.2965233992
 C          1.4798730709        2.3498192886        0.1194947841
 C          2.7336962728        1.8483505584        0.5156727609
 C          2.3527127271       -0.1095122535       -0.9347065606
 H          1.1444306627        3.2980678598        0.5115512897
 C          4.4295140711        0.0985986419        0.3603881031
 C          6.9688640020       -0.9392515993        1.1408653642
 C          4.8965649776       -1.1279030083       -0.1656919768
 C          5.2505629290        0.8089839350        1.2719675808
 C          6.5027218537        0.2711586539        1.6420261706
 C          6.1564959743       -1.6198639967        0.2360558081
 H          7.0998596139        0.8371107206        2.3390133481
 H          6.4839165681       -2.5590582176       -0.1836647803
 C          3.5690644525        2.5456180595        1.4177325433
 H          3.2288919129        3.4904527046        1.8144964974
 C          4.7913888283        2.0410495567        1.7871213350
 H          5.4172963547        2.5863757030        2.4775003682
 C          2.8519338458       -1.3280573545       -1.4536678358
 H          2.2649787834       -1.8889543621       -2.1638037114
 C          4.0785540621       -1.8198787204       -1.0845610017
 H          4.4312094740       -2.7517272220       -1.5007910474
 C          8.3064509225       -1.5341612861        1.5387481413
 C          9.0625541955       -0.6601866032        2.5407928768
 H         10.0064550668       -1.1369449902        2.7904735651
 H          8.5010975810       -0.5398867872        3.4647339898
 H          9.2896991859        0.3175460314        2.1217723639
 C          9.1711566346       -1.6927371708        0.2787257939
 H          9.3246786145       -0.7292039531       -0.2022935242
 H          8.7199846346       -2.3693119215       -0.4418564728
 H         10.1417415154       -2.0956010788        0.5534581256
 C          8.0601301646       -2.9089696112        2.1799278869
 H          7.4214077772       -2.8126711147        3.0553413854
 H          9.0074369198       -3.3374891629        2.4941425470
 H          7.5926354220       -3.6029854430        1.4868295628
 C          0.2073312644       -0.2981391912       -2.2811313082
 H          0.1491537408       -1.3552612853       -2.0050111960
 H          0.7020408964       -0.2503861670       -3.2575405186
 H         -0.7734635611        1.1188172749       -4.3296842324
 C         -1.5292932521        0.9362030477       -3.5803135692
 C         -3.5016911708        0.4572261202       -1.6610941028
 C         -2.8126975438        1.3915224347       -3.7986352304
 C         -1.1857462179        0.2381137309       -2.4255381856
 C         -2.1755687301        0.0059137404       -1.4305324860
 C         -3.8311959302        1.1526435299       -2.8531819368
 C         -4.5113178053        0.2095565504       -0.7048134527
 C         -6.5494963019       -0.3160907348        1.2179602896
 C         -5.8413067476        0.6401146599       -0.9352265518
 C         -4.2126609322       -0.4778261945        0.4949611370
 C         -5.2402408957       -0.7257189998        1.4323300119
 C         -6.8294349387        0.3649071598        0.0323105514
 H         -4.9745647490       -1.2540456048        2.3338754570
 H         -7.8350601642        0.7004724520       -0.1713328821
 C         -1.9013335985       -0.6646572474       -0.2139461455
 H         -0.8965789085       -0.9984052236       -0.0054807742
 C         -2.8828541147       -0.8967813070        0.7151398013
 H         -2.6445705993       -1.4138808173        1.6326978162
 C         -5.1608914968        1.5807636839       -3.0616452031
 H         -5.3994313993        2.1091034901       -3.9725607195
 C         -6.1403380933        1.3298222381       -2.1315078034
 H         -7.1533359087        1.6589366419       -2.3085499588
 C         -7.6681974202       -0.5788298222        2.2080257340
 C         -7.1867688455       -1.3309562355        3.4498226094
 H         -6.4367443503       -0.7603181116        3.9932678258
 H         -6.7842947110       -2.3077334644        3.1905410997
 H         -8.0274302246       -1.4897645042        4.1195311585
 C         -8.7492212460       -1.4221719983        1.5141375347
 H         -9.5466536993       -1.6396990007        2.2188900971
 H         -8.3326811229       -2.3651978877        1.1667605029
 H         -9.1861769785       -0.9052390810        0.6643804377
 C         -8.2616228512        0.7674300031        2.6512940631
 H         -7.4967082163        1.3878256063        3.1135186009
 H         -9.0477076443        0.5941453660        3.3805954079
 H         -8.6935477329        1.3161540932        1.8191137975
 H         -3.0508244844        1.9267180332       -4.7053115793
