77
       -105.32612883
 H         -0.2641012591        1.8795192069       -1.3751578920
 C          0.6889236963        1.4459612511       -1.1114105433
 C          3.1727694551        0.3464886038       -0.4577257880
 C          1.0557880923        1.3754809502        0.2277041004
 C          1.5163746359        0.9853665498       -2.1156083606
 C          2.7707614870        0.4221877523       -1.8158233600
 C          2.3247919814        0.8269488942        0.5756981059
 H          1.2055067988        1.0594230918       -3.1467630489
 C          4.4343196679       -0.2062455254       -0.1427578236
 C          6.9749308567       -1.3352653447        0.4938424078
 C          4.8694305032       -0.2841464180        1.2003061742
 C          5.2876994946       -0.6874869651       -1.1674009690
 C          6.5396664366       -1.2428653698       -0.8235625885
 C          6.1306979932       -0.8468558672        1.4891183525
 H          7.1618584240       -1.6010244370       -1.6280917536
 H          6.4333260224       -0.8917127242        2.5244246097
 C          3.6379141338       -0.0565165654       -2.8240932656
 H          3.3221990832        0.0114441164       -3.8544121421
 C          4.8603190317       -0.5972359810       -2.5103110492
 H          5.5107848052       -0.9584337183       -3.2927392549
 C          2.7922669097        0.7464952153        1.9092662003
 H          2.1800701476        1.1188067316        2.7155041604
 C          4.0191938396        0.2119124906        2.2118966447
 H          4.3471264620        0.1673329310        3.2397226251
 C          8.3126279237       -1.9388648143        0.8780342095
 C          8.0618737293       -3.1335516642        1.8116546267
 H          7.5683873071       -2.8338255368        2.7320970107
 H          9.0101184433       -3.5930756050        2.0751354113
 H          7.4454117818       -3.8812685110        1.3172078347
 C          9.1445016129       -0.8721344304        1.6064962451
 H          8.6660970709       -0.5394344343        2.5235571948
 H          9.3007516758       -0.0070421444        0.9657544836
 H         10.1152874082       -1.2843553915        1.8662218114
 C          9.1050914097       -2.4292767075       -0.3348642248
 H          9.3369819456       -1.6117848612       -1.0138801959
 H          8.5673355034       -3.2080203085       -0.8712925865
 H         10.0473510575       -2.8533811595        0.0010963196
 C          0.1458685693        1.9146877244        1.2977081663
 H          0.6161358400        2.8169609602        1.7041206952
 H          0.0804890199        1.1929086580        2.1173825939
 H         -0.8712492406        4.3643789760        0.9335557861
 C         -1.6087654127        3.5995804829        0.7403368826
 C         -3.5344753801        1.6350995539        0.2547759226
 C         -2.8914702231        3.9764087444        0.4014983571
 C         -1.2432652046        2.2605329311        0.8507366349
 C         -2.2087095360        1.2499421660        0.5855272312
 C         -3.8869586981        3.0064920427        0.1636877220
 C         -4.5209669769        0.6516942110        0.0204738144
 C         -6.5131394009       -1.3382424723       -0.4254611011
 C         -5.8508922954        1.0272725790       -0.2919106400
 C         -4.1990176426       -0.7234767614        0.1004205225
 C         -5.2040425302       -1.6904342270       -0.1252605240
 C         -6.8160178004        0.0217884290       -0.5059184632
 H         -4.9210496192       -2.7283526165       -0.0536144183
 H         -7.8222532148        0.3365307785       -0.7378282324
 C         -1.9104709237       -0.1330830988        0.6422660809
 H         -0.9049539397       -0.4512935905        0.8704432301
 C         -2.8694018713       -1.0846993367        0.4070652233
 H         -2.6132023457       -2.1323447166        0.4607831256
 C         -5.2159994682        3.3613875373       -0.1565275506
 H         -5.4721584253        4.4081707092       -0.2231688679
 C         -6.1730640713        2.4003822246       -0.3754985653
 H         -7.1860193255        2.6883646836       -0.6138576667
 C         -7.6080948296       -2.3606093897       -0.6633444943
 C         -8.1717889880       -2.1603392208       -2.0786796447
 H         -7.3867282941       -2.2795820584       -2.8223834432
 H         -8.6186229197       -1.1781073577       -2.2041391099
 H         -8.9402624035       -2.9035224811       -2.2709409944
 C         -8.7182802028       -2.1409628175        0.3761616897
 H         -8.3234957823       -2.2481099088        1.3842001722
 H         -9.4991331746       -2.8825985162        0.2342616147
 H         -9.1713070021       -1.1575928685        0.2867892757
 C         -7.1032652719       -3.7991396037       -0.5395921291
 H         -6.7206283854       -4.0005560009        0.4585713028
 H         -6.3315542629       -4.0134446783       -1.2758208555
 H         -7.9276113172       -4.4836974485       -0.7192478558
 H         -3.1470311135        5.0225197301        0.3270373626
