77
       -105.32611109
 H         -0.2653728126        2.1773076402       -0.8648822996
 C          0.6846845823        1.7304306641       -0.6129167284
 C          3.1608049659        0.6108404242        0.0356810390
 C          1.0828904877        0.5686464853       -1.2645554081
 C          1.4773297439        2.3349965279        0.3417122030
 C          2.7268780987        1.7907477520        0.6924092820
 C          2.3486867891       -0.0078871720       -0.9520323456
 H          1.1427267485        3.2399425788        0.8259763628
 C          4.4183120259        0.0598455503        0.3693210421
 C          6.9510286369       -1.0596436976        1.0525117017
 C          4.8848691736       -1.1083946495       -0.2762502714
 C          5.2361845647        0.6710186576        1.3528258548
 C          6.4851677013        0.0947165989        1.6721727690
 C          6.1411515463       -1.6428814805        0.0800128664
 H          7.0801035479        0.5850306442        2.4260339311
 H          6.4678048417       -2.5362084645       -0.4305955042
 C          3.5587547042        2.3893843523        1.6657038523
 H          3.2188882691        3.2899612903        2.1548897592
 C          4.7774570944        1.8456278654        1.9884898891
 H          5.4008659622        2.3155934582        2.7343138862
 C          2.8474840722       -1.1689965505       -1.5895816087
 H          2.2634301068       -1.6523829950       -2.3568145045
 C          4.0703183900       -1.7003065013       -1.2654095765
 H          4.4227706284       -2.5860889247       -1.7724792560
 C          8.2853251898       -1.6955777692        1.3939708297
 C          9.0429397427       -0.9246494129        2.4762466849
 H          9.9855869999       -1.4256067307        2.6788554897
 H          8.4814576283       -0.8929838119        3.4074101253
 H          9.2725111352        0.0885116296        2.1538027568
 C          9.1525479861       -1.7373225868        0.1264733996
 H          9.3093001136       -0.7333004889       -0.2617474602
 H          8.7018945619       -2.3423772715       -0.6554038100
 H         10.1216384673       -2.1664495411        0.3642294989
 C          8.0310950856       -3.1241454117        1.9005081420
 H          7.3927122050       -3.1085890023        2.7813073541
 H          8.9759038302       -3.5861532064        2.1718591327
 H          7.5596263540       -3.7456006496        1.1441069230
 C          0.2104279924       -0.0491278935       -2.3231719282
 H          0.1556798930       -1.1303287577       -2.1647387107
 H          0.7050785810        0.1070608019       -3.2882443247
 H         -0.7846241323        1.5621230040       -4.2164852421
 C         -1.5361002897        1.3029752409       -3.4855257647
 C         -3.4974538781        0.6281240441       -1.6143571443
 C         -2.8218198536        1.7739166498       -3.6508806910
 C         -1.1848360682        0.4940876523       -2.4079971490
 C         -2.1691632780        0.1596400952       -1.4369130744
 C         -3.8347329796        1.4388707137       -2.7288995697
 C         -4.5014772720        0.2827529523       -0.6828005665
 C         -6.5283711549       -0.4395836202        1.1872964365
 C         -5.8335341336        0.7309874052       -0.8618572570
 C         -4.1950523784       -0.5213599660        0.4399718206
 C         -5.2171500783       -0.8652932630        1.3526651449
 C         -6.8159315811        0.3571166403        0.0780271320
 H         -4.9456083369       -1.4812211585        2.1949161766
 H         -7.8232541362        0.7091535706       -0.0854513266
 C         -1.8871907716       -0.6299079917       -0.2958665587
 H         -0.8807446204       -0.9808128401       -0.1275608078
 C         -2.8633185880       -0.9572359238        0.6099106273
 H         -2.6192349263       -1.5639816291        1.4691931972
 C         -5.1663974057        1.8823695268       -2.8864237907
 H         -5.4109321837        2.4989272855       -3.7384051531
 C         -6.1402983646        1.5368483251       -1.9810987415
 H         -7.1548530618        1.8796648258       -2.1188822935
 C         -7.6412984035       -0.8042444626        2.1512234157
 C         -8.2350467551        0.4885624965        2.7318720486
 H         -9.0166214985        0.2401586605        3.4441029625
 H         -8.6728213235        1.1176188948        1.9619233405
 H         -7.4688388138        1.0609646671        3.2504505449
 C         -7.1518240786       -1.6773706817        3.3077717851
 H         -7.9887106775       -1.9058621871        3.9618746625
 H         -6.4003982387       -1.1628202992        3.9028292485
 H         -6.7483779734       -2.6215675822        2.9485525306
 C         -8.7242290927       -1.5755558867        1.3807440723
 H         -8.3076613986       -2.4775623657        0.9376473384
 H         -9.1664239023       -0.9762812962        0.5898161684
 H         -9.5176909191       -1.8652213227        2.0636793728
 H         -3.0659937303        2.3964243100       -4.4982709543
