77
       -105.32605466
 H         -0.2859183561        2.0126245056       -1.0622538058
 C          0.6711098908        1.6068880149       -0.7703278151
 C          3.1652843145        0.5942905012       -0.0223756670
 C          1.0728693076        0.3782499620       -1.2817217502
 C          1.4689526095        2.3288748512        0.0943401142
 C          2.7278949368        1.8416749458        0.4919085246
 C          2.3471472620       -0.1465538910       -0.9165210380
 H          1.1310001141        3.2827493786        0.4702649720
 C          4.4320915451        0.0982574371        0.3588691645
 C          6.9847948183       -0.9078738058        1.1372621380
 C          4.9017860905       -1.1362011964       -0.1458035987
 C          5.2561452035        0.8314160542        1.2494647536
 C          6.5150561002        0.3090840067        1.6187699969
 C          6.1681472443       -1.6123696915        0.2548289912
 H          7.1146688457        0.8926313005        2.2989145768
 H          6.4973378616       -2.5583568018       -0.1479231368
 C          3.5655425365        2.5607911002        1.3745035178
 H          3.2226674173        3.5110620271        1.7556530205
 C          4.7934949748        2.0704655375        1.7443597322
 H          5.4212620587        2.6325657167        2.4194235590
 C          2.8480992076       -1.3737233902       -1.4129671490
 H          2.2581047163       -1.9526032450       -2.1059351040
 C          4.0799160526       -1.8517540627       -1.0429317628
 H          4.4339310831       -2.7906212051       -1.4418836539
 C          8.3303794449       -1.4853948940        1.5337755589
 C          9.0943726903       -0.5814645552        2.5027141598
 H          8.5452626137       -0.4413841570        3.4312549336
 H          9.3087611430        0.3867734462        2.0558029982
 H         10.0449408926       -1.0455555495        2.7509758997
 C          9.1806054735       -1.6733969963        0.2679939400
 H          9.3201459165       -0.7229772834       -0.2424917904
 H          8.7264965094       -2.3742340804       -0.4270786011
 H         10.1578748201       -2.0603653393        0.5418957436
 C          8.0986699234       -2.8438259984        2.2141496639
 H          7.4732752975       -2.7266765615        3.0966087192
 H          9.0521828887       -3.2612752885        2.5244852957
 H          7.6225154294       -3.5567105397        1.5465334286
 C          0.1957464671       -0.3727012495       -2.2463185621
 H          0.1286145628       -1.4198509767       -1.9359982115
 H          0.6948830694       -0.3607773035       -3.2214856510
 H         -0.7593945536        0.9983850366       -4.3370328102
 C         -1.5211225623        0.8407690772       -3.5879599815
 C         -3.5131444116        0.4272846511       -1.6739573948
 C         -2.8009051631        1.3022910506       -3.8272162081
 C         -1.1921347404        0.1701523070       -2.4156436892
 C         -2.1929086066       -0.0295781013       -1.4214013596
 C         -3.8269183863        1.0962120229       -2.8851064166
 C         -4.5326909026        0.2118964617       -0.7201825524
 C         -6.5963413914       -0.2486960202        1.1923769493
 C         -5.8582178779        0.6480563847       -0.9701863486
 C         -4.2481027833       -0.4486505959        0.4969595858
 C         -5.2873568221       -0.6643042453        1.4266291106
 C         -6.8610220740        0.4060079903       -0.0057117004
 H         -5.0389266496       -1.1741409242        2.3452240867
 H         -7.8587497134        0.7481323281       -0.2295054377
 C         -1.9326893846       -0.6714547946       -0.1873847323
 H         -0.9322697078       -1.0074181990        0.0374364099
 C         -2.9234358241       -0.8732569816        0.7393123894
 H         -2.6965766302       -1.3694504183        1.6712032606
 C         -5.1521961711        1.5310958234       -3.1129205520
 H         -5.3794041889        2.0396167748       -4.0379364321
 C         -6.1405981282        1.3113953625       -2.1843516654
 H         -7.1491430086        1.6453742869       -2.3770148582
 C         -7.6654155144       -0.5237769804        2.2333381710
 C         -7.7692479118       -2.0431021198        2.4383733496
 H         -6.8393702047       -2.4683435286        2.8061224848
 H         -8.0285235911       -2.5370487238        1.5045023041
 H         -8.5467443387       -2.2587267429        3.1655645356
 C         -9.0387661969        0.0056595257        1.8175793007
 H         -9.7599081238       -0.2193497142        2.5985529952
 H         -9.3868909708       -0.4694755965        0.9031908095
 H         -9.0243265677        1.0852134156        1.6850489919
 C         -7.2592059387        0.1548613380        3.5506673952
 H         -8.0305281346       -0.0119020875        4.2970091239
 H         -7.1478321156        1.2276519398        3.4085890396
 H         -6.3253839920       -0.2402949881        3.9411424915
 H         -3.0267054583        1.8165186248       -4.7491020904
