77
       -105.32603390
 H          1.0083963825        4.4058324513        0.2803643438
 C          1.7247355631        3.5984519640        0.2460698697
 C          3.5998908519        1.5294710270        0.1689439537
 C          1.3088103711        2.3081819961        0.5534874586
 C          3.0342222629        3.8792277479       -0.0923044759
 C          4.0023765253        2.8573419914       -0.1269861603
 C          2.2498109020        1.2397730294        0.4989297721
 H          3.3278359555        4.8921247218       -0.3227861671
 C          4.5605063333        0.4941460395        0.1391727028
 C          6.5035591765       -1.5919962241        0.1017527692
 C          4.1873234557       -0.8388296430        0.4266755551
 C          5.9144846560        0.7751026025       -0.1731749684
 C          6.8561007575       -0.2773539352       -0.1838342691
 C          5.1683773824       -1.8526301034        0.4023756883
 H          7.8775319952       -0.0279494124       -0.4227257522
 H          4.8528176473       -2.8596159646        0.6301159177
 C          5.3552239699        3.1169006929       -0.4429134270
 H          5.6502256884        4.1312422845       -0.6664252626
 C          6.2856683859        2.1062968450       -0.4631714285
 H          7.3161603017        2.3230708953       -0.7017502150
 C          1.9011381659       -0.1055539370        0.7654269083
 H          0.8771327447       -0.3543088843        0.9973261999
 C          2.8351334946       -1.1092873568        0.7302802282
 H          2.5410310116       -2.1265653347        0.9418109979
 C          7.5053828566       -2.7315335771        0.0997375255
 C          7.0571417334       -3.7816405444       -0.9285276366
 H          6.9930457535       -3.3406635355       -1.9209564233
 H          6.0904408251       -4.2099336678       -0.6781390102
 H          7.7821499425       -4.5897747351       -0.9607837520
 C          7.5398037337       -3.3558481335        1.5033609384
 H          6.5762163683       -3.7695545639        1.7881089333
 H          7.8285268168       -2.6133048145        2.2440149491
 H          8.2692272341       -4.1603908862        1.5246870264
 C          8.9179087347       -2.2698339779       -0.2619874442
 H          8.9513200531       -1.8410075582       -1.2611007932
 H          9.5876533207       -3.1253324716       -0.2495865536
 H          9.2957626924       -1.5473172098        0.4578850681
 C         -0.1093955487        2.0774916912        0.9836662727
 H         -0.5606539721        3.0455000522        1.2278327916
 H         -0.1062229351        1.4865708962        1.9045107041
 H          0.4224054128        1.5900138852       -1.6238419406
 C         -0.5628685253        1.2470377649       -1.3457067674
 C         -3.1277102694        0.3773484547       -0.6597931807
 C         -1.3655070759        0.6655736568       -2.3064581810
 C         -0.9946024202        1.4115918011       -0.0345485873
 C         -2.3047118684        0.9816539900        0.3277677519
 C         -2.6599805548        0.2141072210       -1.9888308252
 C         -4.4292926981       -0.0616320920       -0.3290659409
 C         -7.0513347996       -0.9612774348        0.3417457959
 C         -5.2581709056       -0.6648323341       -1.3082829101
 C         -4.9292331842        0.0977869807        0.9838894997
 C         -6.2298299191       -0.3554324463        1.2904246076
 C         -6.5516703518       -1.1021649246       -0.9482067603
 H         -6.5817967545       -0.2190369787        2.3018496178
 H         -7.1538028471       -1.5582169747       -1.7176961949
 C         -2.8363539356        1.1379512120        1.6301852559
 H         -2.2431358027        1.6081677097        2.3985597076
 C         -4.1018310531        0.7130932731        1.9478051563
 H         -4.4784479288        0.8492534766        2.9505906201
 C         -3.5031584632       -0.3834928835       -2.9530216626
 H         -3.1369844740       -0.4974264426       -3.9623716457
 C         -4.7651372465       -0.8122047710       -2.6233482568
 H         -5.3965839970       -1.2667626748       -3.3719547125
 C         -8.4344288365       -1.4366660810        0.7447075523
 C         -9.2430089628       -0.2320461445        1.2502995631
 H         -9.3245040293        0.5256096116        0.4739834973
 H         -8.7912287392        0.2216559152        2.1281371461
 H        -10.2447839412       -0.5547999864        1.5187852659
 C         -8.2878654063       -2.4759746728        1.8672930976
 H         -7.8221955014       -2.0540982790        2.7537261896
 H         -7.6884111632       -3.3191357238        1.5306580112
 H         -9.2693590366       -2.8460163011        2.1492343934
 C         -9.1948415719       -2.0803887655       -0.4159051720
 H         -9.3528579335       -1.3731829362       -1.2270940203
 H        -10.1721429760       -2.4034658981       -0.0679250444
 H         -8.6740943526       -2.9579301835       -0.7928953013
 H         -1.0035479618        0.5570422105       -3.3177021714
