77
       -105.32641556
 H         -0.2951578352        1.8676463469       -0.8610450414
 C          0.6825467224        1.4830139749       -0.6124039104
 C          3.2278586031        0.5206039249        0.0219933446
 C          1.0739375231        0.2444258561       -1.1130966306
 C          1.5163090690        2.2382070449        0.1844663683
 C          2.8055012382        1.7794918883        0.5208290882
 C          2.3680212123       -0.2578643378       -0.7976808040
 H          1.1870912420        3.1977392184        0.5536248797
 C          4.5210108275        0.0509870233        0.3430929062
 C          7.1327022976       -0.8996233839        0.9824303404
 C          4.9758220784       -1.1970017781       -0.1439311963
 C          5.3870242841        0.8254680495        1.1539462496
 C          6.6728170719        0.3303049325        1.4541846453
 C          6.2733722195       -1.6469410917        0.1874650599
 H          7.3109596847        0.9418178375        2.0741260836
 H          6.5833129118       -2.6033375664       -0.2021392206
 C          3.6829533585        2.5373862750        1.3277081849
 H          3.3496578900        3.4947906776        1.6993175899
 C          4.9385434208        2.0753585324        1.6365004318
 H          5.5984315244        2.6676173686        2.2525840961
 C          2.8509414842       -1.5019778853       -1.2716948921
 H          2.2244938865       -2.1150430835       -1.9003104092
 C          4.1070759510       -1.9551719334       -0.9571734290
 H          4.4453159697       -2.9076965317       -1.3369704233
 C          8.5295347403       -1.3637620798        1.3486432182
 C          8.6315529865       -1.4601705721        2.8789601842
 H          9.6197108991       -1.8173714210        3.1542213191
 H          7.8944573840       -2.1598174904        3.2672256918
 H          8.4787270241       -0.4973914178        3.3586528521
 C          9.5427778412       -0.3357485139        0.8216668243
 H          9.4015838287        0.6427645160        1.2722937893
 H          9.4562046528       -0.2335243283       -0.2579342563
 H         10.5504384595       -0.6683649082        1.0536397061
 C          8.8682424129       -2.7308043031        0.7519893063
 H          8.1924221453       -3.5011391037        1.1169964585
 H          9.8754328265       -3.0108825256        1.0480640485
 H          8.8405442358       -2.7064528976       -0.3351680987
 C          0.1605573784       -0.5449959377       -2.0115494177
 H          0.0563169153       -1.5595480033       -1.6152233956
 H          0.6541983627       -0.6328475056       -2.9854464936
 H         -0.6657237641        0.8466412824       -4.1340298696
 C         -1.4626241242        0.7193819887       -3.4163932931
 C         -3.5394605980        0.3800372689       -1.5803212641
 C         -2.7137738601        1.2196916240       -3.7086736192
 C         -1.2023946041        0.0425707650       -2.2272062475
 C         -2.2443249857       -0.1138597017       -1.2718944217
 C         -3.7845617371        1.0490510456       -2.8072654994
 C         -4.6024001563        0.2020736922       -0.6672570343
 C         -6.7505272981       -0.1894516464        1.1659180516
 C         -5.9024345741        0.6727348678       -0.9764150171
 C         -4.3880790785       -0.4547091819        0.5673187828
 C         -5.4688066617       -0.6357225678        1.4592009090
 C         -6.9464442944        0.4631500065       -0.0521066368
 H         -5.2669114766       -1.1420424876        2.3894650931
 H         -7.9277625642        0.8273729214       -0.3161459907
 C         -2.0533976258       -0.7468207269       -0.0194913712
 H         -1.0724097090       -1.1047685585        0.2520825076
 C         -3.0863304995       -0.9102768218        0.8676831851
 H         -2.9110040604       -1.4004534384        1.8137624324
 C         -5.0848169762        1.5206431681       -3.0931514223
 H         -5.2582112335        2.0295112808       -4.0295191777
 C         -6.1169342746        1.3351191416       -2.2057909310
 H         -7.1068518325        1.6956308880       -2.4422209585
 C         -7.9265783639       -0.3839549566        2.1038753454
 C         -8.9959103161       -1.2181161514        1.3812689319
 H         -8.5932168995       -2.1866083869        1.0925815538
 H         -9.3670407223       -0.7204019204        0.4897192559
 H         -9.8380898874       -1.3827492501        2.0472581529
 C         -8.5000894490        0.9934885231        2.4710646684
 H         -9.3263058227        0.8683780689        3.1650120125
 H         -8.8735570384        1.5249569760        1.6003144623
 H         -7.7405957547        1.6074542845        2.9504569298
 C         -7.5342314004       -1.1070481100        3.3932845903
 H         -7.1503763969       -2.1039088973        3.1878374650
 H         -8.4129665240       -1.2172511831        4.0226875213
 H         -6.7952924109       -0.5409299413        3.9562583256
 H         -2.8871253585        1.7357625175       -4.6407558249
