77
       -105.32598849
 H          0.1353059870        2.5340337173        0.1316000776
 C          1.1068062558        2.0618526557        0.1253157471
 C          3.6184011185        0.8474233210        0.1405844000
 C          1.2079657492        0.7325153670        0.5423263122
 C          2.2060904387        2.7849308689       -0.2743922000
 C          3.4896868197        2.2002118345       -0.2663098465
 C          2.4769678439        0.0947674083        0.5355979138
 H          2.0980677257        3.8133092980       -0.5838597018
 C          4.9014849208        0.2555016815        0.1550605482
 C          7.4927417256       -0.9373736015        0.2164323771
 C          5.0700109946       -1.0925642215        0.5511419015
 C          6.0446623860        1.0031726086       -0.2210399257
 C          7.3126210836        0.3883737170       -0.1811084703
 C          6.3629835979       -1.6612567161        0.5728777044
 H          8.1649629604        0.9836900283       -0.4718617422
 H          6.4489004401       -2.6906527273        0.8818890994
 C          4.6391000095        2.9270818531       -0.6463124633
 H          4.5235357217        3.9551800784       -0.9551880436
 C          5.8837005086        2.3482057920       -0.6220705236
 H          6.7542040915        2.9187457809       -0.9091021438
 C          2.6771637552       -1.2590736103        0.9040090599
 H          1.8340348235       -1.8726797582        1.1810130828
 C          3.9234264219       -1.8305530753        0.9137841844
 H          4.0382098290       -2.8640512803        1.2048730310
 C          8.8913699064       -1.5231475234        0.2419437609
 C          9.4784160447       -1.4591625269       -1.1769944389
 H          9.5616755007       -0.4376353373       -1.5374882668
 H          8.8575842343       -2.0205140996       -1.8719788626
 H         10.4729355811       -1.8959493727       -1.1773110665
 C          8.9089605550       -2.9785987001        0.7112072585
 H          8.5239218399       -3.0726258620        1.7242619201
 H          9.9331888298       -3.3411938457        0.7142566012
 H          8.3361077762       -3.6178882245        0.0430357398
 C          9.7561401196       -0.6898677082        1.2009111412
 H         10.7540705795       -1.1158302535        1.2516741124
 H          9.3298246954       -0.6962455744        2.2017490114
 H          9.8498593657        0.3417322060        0.8733665115
 C         -0.0517489243        0.0813339769        1.0345848109
 H         -0.3955620714        0.6699939685        1.8901680598
 H          0.1317902527       -0.9313217451        1.4014628672
 H          0.2522666568       -0.1038543051       -1.6160879282
 C         -0.7931645330       -0.0859609616       -1.3455713921
 C         -3.4988307795       -0.0692060998       -0.6568757441
 C         -1.7450212313       -0.1600606347       -2.3380028678
 C         -1.1411588294        0.0105485848        0.0009527576
 C         -2.5155730182       -0.0016163336        0.3676005590
 C         -3.1183241175       -0.1418958624       -2.0214395472
 C         -4.8725991085       -0.0694741039       -0.3261330037
 C         -7.6444491666       -0.0610497269        0.3482407996
 C         -5.8582150826       -0.1293133911       -1.3422199839
 C         -5.2892038408       -0.0132939281        1.0247821171
 C         -6.6676289391       -0.0098809586        1.3339138209
 C         -7.2207057341       -0.1224854542       -0.9798196086
 H         -6.9443211801        0.0343081498        2.3750880886
 H         -7.9488393912       -0.1677441273       -1.7755891316
 C         -2.9642475047        0.0405872402        1.7106963421
 H         -2.2473841898        0.0696980003        2.5163082208
 C         -4.2984976291        0.0333587240        2.0282565675
 H         -4.6043894705        0.0645780855        3.0633627773
 C         -4.1149565411       -0.2050346746       -3.0203187666
 H         -3.8098139637       -0.2609960616       -4.0545038567
 C         -5.4480229689       -0.1962383814       -2.6925782202
 H         -6.1983230960       -0.2431442083       -3.4675502228
 C         -9.1293794357       -0.0551622367        0.6571774628
 C         -9.7705392831        1.1617393148       -0.0280670469
 H        -10.8303660441        1.1937950137        0.2078337488
 H         -9.6701162924        1.1203478873       -1.1090777287
 H         -9.3132752980        2.0833952674        0.3255365966
 C         -9.4161081736        0.0250682521        2.1574074324
 H         -9.0167500507        0.9405142599        2.5884984260
 H         -9.0091778428       -0.8344383611        2.6854971365
 H        -10.4909084143        0.0289273632        2.3166062279
 C         -9.7508136226       -1.3495164032        0.1093208421
 H         -9.6430620422       -1.4278882760       -0.9689655928
 H        -10.8116807124       -1.3688404207        0.3418091719
 H         -9.2842697412       -2.2195616505        0.5663152191
 H         -1.4447491372       -0.2334263220       -3.3722578230
