77
       -105.32599155
 H         -0.2889094783        1.4267098665       -0.3266252959
 C          0.7466836196        1.1467174591       -0.2029850500
 C          3.4287962492        0.4413820058        0.1268191913
 C          1.0929510583       -0.2022696860       -0.2339101095
 C          1.6906821579        2.1338627702       -0.0215318269
 C          3.0529214536        1.8091018406        0.1354060050
 C          2.4527884074       -0.5769624209       -0.0451671709
 H          1.3920287189        3.1710489736       -0.0024004835
 C          4.7902974329        0.1013927495        0.2913364814
 C          7.5406711543       -0.5905019747        0.5961625866
 C          5.1994977273       -1.2528886718        0.2981498975
 C          5.7704501412        1.1118764386        0.4514614403
 C          7.1226450865        0.7406955893        0.5992134024
 C          6.5676272079       -1.5706474209        0.4503403038
 H          7.8473594244        1.5322224340        0.7165593472
 H          6.8397608342       -2.6139659768        0.4483370751
 C          4.0430452671        2.8021193284        0.3051777821
 H          3.7419240955        3.8389605583        0.3128034284
 C          5.3653824631        2.4654289359        0.4563339475
 H          6.1110819068        3.2361116924        0.5817869560
 C          2.8903257695       -1.9237727564       -0.0141906127
 H          2.1731955233       -2.7231722119       -0.1157174380
 C          4.2122378101       -2.2503191614        0.1522634359
 H          4.5110446827       -3.2877963920        0.1706285207
 C          9.0159353943       -0.9087398233        0.7479987004
 C          9.2980653734       -2.4116577312        0.7160614423
 H          8.9932079925       -2.8518276606       -0.2308672743
 H          8.7997645949       -2.9262378567        1.5346829244
 H         10.3661902204       -2.5775998876        0.8262973027
 C          9.5071978551       -0.3477321902        2.0914999905
 H          9.3981239669        0.7318570842        2.1462371513
 H         10.5595250956       -0.5844026225        2.2197795255
 H          8.9535115758       -0.7922012460        2.9156955252
 C          9.7821562661       -0.2436878646       -0.4063618614
 H          9.6875307854        0.8384906848       -0.3875685587
 H          9.4165966976       -0.6050344623       -1.3651747041
 H         10.8376889227       -0.4880987813       -0.3291136589
 C          0.0287874618       -1.2443007950       -0.4470525678
 H         -0.2001457936       -1.7085850892        0.5156218974
 H          0.4318098833       -2.0316084740       -1.0906133691
 H         -0.1921361016       -0.6003220995       -2.9853356891
 C         -1.1372169037       -0.4645204366       -2.4803509802
 C         -3.5874348733       -0.1368139166       -1.1864087244
 C         -2.2364426037       -0.0598542231       -3.2066720889
 C         -1.2122062708       -0.7249956432       -1.1136687002
 C         -2.4469957842       -0.5317331877       -0.4337337595
 C         -3.4891423664        0.0965421892       -2.5820137350
 C         -4.8386363078        0.0246483405       -0.5498634323
 C         -7.3700363141        0.3253967087        0.7313002619
 C         -5.9853674574        0.3981572497       -1.2948376887
 C         -4.9699296664       -0.1883038789        0.8419919816
 C         -6.2330196141       -0.0334659642        1.4518485734
 C         -7.2261657064        0.5383291710       -0.6355451972
 H         -6.2994369750       -0.2057600314        2.5155094642
 H         -8.0773319158        0.8202564348       -1.2344281747
 C         -2.6049674856       -0.7097795600        0.9621946181
 H         -1.7528191542       -0.9707422371        1.5703721862
 C         -3.8196514584       -0.5460953207        1.5778643436
 H         -3.9061531400       -0.6937593745        2.6440581355
 C         -4.6410400718        0.4767692214       -3.3066492229
 H         -4.5508783510        0.6515632098       -4.3683152338
 C         -5.8562941835        0.6191193366       -2.6833856761
 H         -6.7285039792        0.9032846110       -3.2527846882
 C         -8.6990438313        0.4666412923        1.4493003570
 C         -9.8336421305        0.8757352927        0.5085121602
 H         -9.9960877376        0.1290094629       -0.2655276219
 H         -9.6383951408        1.8418779322        0.0483392059
 H        -10.7553601779        0.9637313425        1.0771141343
 C         -8.5602714099        1.5390954825        2.5408249609
 H         -9.5135960259        1.6684903370        3.0450330703
 H         -8.2726877863        2.4929826107        2.1038973098
 H         -7.8211596564        1.2654653660        3.2887247408
 C         -9.0571623916       -0.8847921740        2.0870685534
 H        -10.0201615421       -0.8078774477        2.5835650958
 H         -8.3225674424       -1.1923739969        2.8262488136
 H         -9.1259408961       -1.6592276463        1.3262023780
 H         -2.1489036430        0.1241176081       -4.2666701465
