77
       -105.32600235
 H         -0.2366344854        1.5011428253       -0.2416626251
 C          0.8007847510        1.2165341236       -0.1459290869
 C          3.4852976329        0.4968637614        0.1210612281
 C          1.1199353084       -0.1299780383        0.0212897697
 C          1.7716013172        2.1923951478       -0.1920007244
 C          3.1354831016        1.8577677872       -0.0728938662
 C          2.4818865281       -0.5081773966        0.1819670455
 H          1.4935720192        3.2272667672       -0.3223698891
 C          4.8485258784        0.1506191615        0.2562907469
 C          7.6001286434       -0.5580757905        0.5098527650
 C          5.2335550241       -1.1945961429        0.4656258575
 C          5.8548925888        1.1454653039        0.1856979204
 C          7.2069157936        0.7660553307        0.3122243559
 C          6.6025104265       -1.5209220640        0.5886558809
 H          7.9515838203        1.5452882710        0.2508793067
 H          6.8550450406       -2.5570835470        0.7472315328
 C          4.1520222473        2.8366565483       -0.1324095548
 H          3.8702242312        3.8687983656       -0.2775065457
 C          5.4752961739        2.4921922470       -0.0102913049
 H          6.2411603654        3.2515413191       -0.0612020173
 C          2.8978751279       -1.8430426869        0.4097803280
 H          2.1629703701       -2.6288471516        0.4881613952
 C          4.2216481607       -2.1743488648        0.5482122824
 H          4.5027408695       -3.2023273940        0.7220612852
 C          9.0759409274       -0.8878909972        0.6270320138
 C          9.3277432143       -2.3803769355        0.8470636470
 H          8.8720762452       -2.7269037456        1.7720368113
 H         10.3974081748       -2.5555458274        0.9225058928
 H          8.9561301840       -2.9722057694        0.0134062044
 C          9.6640564418       -0.1128313952        1.8163698956
 H          9.1510786681       -0.3809627156        2.7374608979
 H          9.5874220388        0.9622824074        1.6800403357
 H         10.7157375945       -0.3613570881        1.9262281779
 C          9.7774174632       -0.4604563749       -0.6719290413
 H          9.6964923359        0.6091439392       -0.8448721809
 H          9.3489532811       -0.9808960246       -1.5258141323
 H         10.8327149605       -0.7109852537       -0.6133085168
 C          0.0131089397       -1.1472103109        0.0629340451
 H         -0.2295800959       -1.3444840923        1.1098634664
 H          0.3692855505       -2.0896094441       -0.3627717603
 H         -0.0669058716       -0.8062827690       -2.5334686517
 C         -1.0461875533       -0.6429179949       -2.1079331267
 C         -3.5788429859       -0.2459123808       -1.0072602870
 C         -2.1038124322       -0.3566771469       -2.9392755814
 C         -1.2014154876       -0.7479095436       -0.7239839894
 C         -2.4800563183       -0.5253282584       -0.1472876986
 C         -3.3976833386       -0.1638882186       -2.4117730218
 C         -4.8710992728       -0.0498881814       -0.4702412525
 C         -7.4800872051        0.3305344484        0.6202351327
 C         -5.9730202540        0.2129248459       -1.3211249837
 C         -5.0898628661       -0.1162323646        0.9262987177
 C         -6.3907846210        0.0759392530        1.4425026448
 C         -7.2512286532        0.3950462816       -0.7550823680
 H         -6.5157031278        0.0172604573        2.5118347348
 H         -8.0717192631        0.5909965408       -1.4287534466
 C         -2.7288575439       -0.5647394346        1.2473605502
 H         -1.9163956331       -0.7440467350        1.9343155379
 C         -3.9836061870       -0.3698063403        1.7646896760
 H         -4.1366535417       -0.4106618117        2.8328333643
 C         -4.5066633378        0.1042860211       -3.2437476400
 H         -4.3519951611        0.1630274379       -4.3106939388
 C         -5.7612909670        0.2842092827       -2.7160882730
 H         -6.6005902440        0.4829575886       -3.3655236699
 C         -8.8852075065        0.5393978849        1.1513435393
 C         -8.9565347139        0.4400229970        2.6757942766
 H         -9.9823959358        0.5980555025        2.9969878209
 H         -8.3420754409        1.2010991297        3.1518203981
 H         -8.6513758707       -0.5444846593        3.0234844164
 C         -9.8046956335       -0.5336864228        0.5474727460
 H         -9.8531354317       -0.4662968816       -0.5358005043
 H        -10.8114493813       -0.4078412605        0.9354501194
 H         -9.4563141576       -1.5288008318        0.8154454278
 C         -9.3682579417        1.9360670298        0.7292761785
 H         -8.7039740090        2.7036311256        1.1206141190
 H        -10.3638533059        2.1103991703        1.1270675038
 H         -9.4171455277        2.0410376277       -0.3509652500
 H         -1.9552290682       -0.2915204577       -4.0063618740
