77
       -105.32589492
 H          1.1094814897        4.5637947454       -0.1061918253
 C          1.7929867637        3.7277427793       -0.1024562191
 C          3.5846779516        1.5841818780       -0.1043772247
 C          1.3228395190        2.4641219364       -0.4402639397
 C          3.1162330380        3.9462621031        0.2288441292
 C          4.0429194583        2.8859999739        0.2245750919
 C          2.2210530136        1.3581804121       -0.4274379036
 H          3.4525703791        4.9397647695        0.4840685240
 C          4.5032349730        0.5110657499       -0.1160341767
 C          6.3615805712       -1.6504130021       -0.1645697600
 C          4.0738874914       -0.7967694970       -0.4382768221
 C          5.8706915898        0.7287250878        0.1880841245
 C          6.7696288816       -0.3599601527        0.1555486055
 C          5.0136240778       -1.8490099320       -0.4551284893
 H          7.8029250978       -0.1585496836        0.3886498354
 H          4.6553405310       -2.8356086753       -0.7075364742
 C          5.4082986874        3.0820992067        0.5322052225
 H          5.7462053973        4.0769089808        0.7813069461
 C          6.2977057436        2.0350922095        0.5123021907
 H          7.3385338794        2.2038035375        0.7447851240
 C          1.8162047090        0.0369089219       -0.7315750026
 H          0.7811270241       -0.1626752034       -0.9623127533
 C          2.7092076089       -1.0038859225       -0.7358715967
 H          2.3728434308       -2.0016915417       -0.9753261459
 C          7.3167224656       -2.8285281805       -0.2091288038
 C          8.7530312130       -2.4323751555        0.1361747600
 H          9.1450241704       -1.7056927093       -0.5718642639
 H          9.3880598468       -3.3126966300        0.0875168999
 H          8.8227425161       -2.0326635138        1.1454069658
 C          7.3007993974       -3.4199356561       -1.6272272395
 H          7.6024187252       -2.6709619155       -2.3561735428
 H          6.3174466729       -3.7916253106       -1.9021260419
 H          7.9994643883       -4.2497993995       -1.6819708929
 C          6.8447958941       -3.8842174720        0.8027487679
 H          7.5342987069       -4.7234645985        0.7990802741
 H          5.8550577852       -4.2634435884        0.5633215236
 H          6.8209073920       -3.4662462627        1.8068397291
 C         -0.1060479650        2.2967218781       -0.8644291361
 H         -0.1225674153        1.7840810259       -1.8306659875
 H         -0.5432865836        3.2889395768       -1.0227719140
 H          0.3925701602        1.7624794906        1.7316525460
 C         -0.5730306103        1.3861695113        1.4285122056
 C         -3.0869698174        0.4334822376        0.6694396103
 C         -1.3667419459        0.7494566412        2.3574645356
 C         -0.9881021093        1.5670691179        0.1110224570
 C         -2.2722022145        1.0987434748       -0.2855963326
 C         -2.6370206539        0.2526180698        2.0024475487
 C         -4.3630244651       -0.0491114626        0.3022263686
 C         -6.9298413252       -1.0384189653       -0.4505687049
 C         -5.1811091796       -0.7134095440        1.2491597133
 C         -4.8485104544        0.1268173471       -1.0150277247
 C         -6.1230269464       -0.3727530270       -1.3641277787
 C         -6.4453064845       -1.1927178721        0.8488318619
 H         -6.4570525536       -0.2202077171       -2.3778822134
 H         -7.0460401475       -1.6963102139        1.5911252306
 C         -2.7913921433        1.2737579954       -1.5917938189
 H         -2.2081823354        1.7943823685       -2.3350103221
 C         -4.0323968184        0.8068564446       -1.9436924496
 H         -4.3987549538        0.9593359385       -2.9479181796
 C         -3.4701404886       -0.4046100614        2.9346202014
 H         -3.1174498530       -0.5301462064        3.9473571378
 C         -4.7068460398       -0.8766142517        2.5700060328
 H         -5.3319328119       -1.3772967645        3.2941168051
 C         -8.2947811596       -1.5948434253       -0.8079969081
 C         -8.6650195429       -1.3452083460       -2.2708538019
 H         -7.9584617430       -1.8236202237       -2.9456655723
 H         -8.7160843843       -0.2811527040       -2.4907461524
 H         -9.6459635560       -1.7683001080       -2.4689912592
 C         -9.3506434531       -0.9253747779        0.0851296223
 H         -9.3433134703        0.1529293272       -0.0583510222
 H         -9.1840511617       -1.1333780175        1.1384187372
 H        -10.3364234055       -1.2983613868       -0.1774655469
 C         -8.2864674852       -3.1114656405       -0.5589764457
 H         -8.1048500486       -3.3516377626        0.4849499052
 H         -7.5195492207       -3.5929039113       -1.1620525156
 H         -9.2503664205       -3.5291842118       -0.8350240605
 H         -1.0206977151        0.6298525917        3.3729644325
