77
       -105.32583719
 H          1.0835907100        4.5417583659        0.1921109534
 C          1.7731162260        3.7107318353        0.1811008736
 C          3.5800353839        1.5801029235        0.1650107366
 C          1.3084067432        2.4381367345        0.4916449638
 C          3.0982467428        3.9443393494       -0.1318395719
 C          4.0324856796        2.8907278811       -0.1357541556
 C          2.2145542793        1.3388183342        0.4687255037
 H          3.4301750946        4.9445121456       -0.3659152182
 C          4.5061809372        0.5134564184        0.1679482398
 C          6.3796066697       -1.6353426495        0.1994530010
 C          4.0827687413       -0.8029388221        0.4619359021
 C          5.8753569261        0.7461381838       -0.1167071814
 C          6.7817961798       -0.3365669040       -0.0931650323
 C          5.0298959450       -1.8486368876        0.4709014064
 H          7.8161465133       -0.1237249197       -0.3109304447
 H          4.6759510119       -2.8420968377        0.7015892029
 C          5.3997409229        3.1018817879       -0.4244997643
 H          5.7331540704        4.1032999233       -0.6522704561
 C          6.2964789619        2.0610152723       -0.4129535303
 H          7.3385961203        2.2411801481       -0.6305955685
 C          1.8158939034        0.0093886943        0.7441580383
 H          0.7797138734       -0.2017989729        0.9589658137
 C          2.7163280457       -1.0250063334        0.7399702816
 H          2.3844709262       -2.0293406313        0.9574124563
 C          7.3427785202       -2.8072084950        0.2343035429
 C          7.3153074992       -3.4233240865        1.6416698414
 H          6.3316323032       -3.8065830093        1.8989788822
 H          7.6033863797       -2.6850611602        2.3868428565
 H          8.0192552874       -4.2491197636        1.6898880541
 C          8.7799207392       -2.3949088536       -0.0878058952
 H          9.1586833117       -1.6779646961        0.6371644083
 H          8.8579667728       -1.9770966423       -1.0890679245
 H          9.4207863663       -3.2714087246       -0.0473370717
 C          6.8899723442       -3.8484955606       -0.8009634961
 H          5.9005474775       -4.2391090753       -0.5792062850
 H          7.5856902398       -4.6826010056       -0.8042039094
 H          6.8739872460       -3.4132356869       -1.7978407568
 C         -0.1238028758        2.2539522264        0.8971911959
 H         -0.5666720416        3.2398883323        1.0772199176
 H         -0.1481483930        1.7154140816        1.8490960643
 H          0.4095772152        1.7649957871       -1.7028781305
 C         -0.5610649757        1.3871653868       -1.4183081811
 C         -3.0880193516        0.4275068678       -0.7127999161
 C         -1.3451468923        0.7681662511       -2.3704125885
 C         -0.9928010172        1.5461218819       -0.1059979748
 C         -2.2857011725        1.0742245298        0.2651396277
 C         -2.6195251805        0.2690307332       -2.0421507741
 C         -4.3700733134       -0.0588737287       -0.3721058947
 C         -6.9491885056       -1.0601510056        0.3210144422
 C         -5.1775020232       -0.7062901830       -1.3409332334
 C         -4.8718432769        0.0962777929        0.9406898297
 C         -6.1508986830       -0.4076001955        1.2583706395
 C         -6.4497906956       -1.1937618567       -0.9698664619
 H         -6.5045744280       -0.2732747662        2.2694706132
 H         -7.0354941788       -1.6833181961       -1.7314113891
 C         -2.8212727000        1.2290202530        1.5662216647
 H         -2.2471407956        1.7356343829        2.3259384677
 C         -4.0682119506        0.7590444292        1.8931436203
 H         -4.4482143578        0.8953574030        2.8946242163
 C         -3.4424700631       -0.3707338623       -2.9966215401
 H         -3.0766212225       -0.4792910455       -4.0066802107
 C         -4.6846405061       -0.8468163610       -2.6568110847
 H         -5.3004722537       -1.3338280365       -3.3979741724
 C         -8.3078432238       -1.5917137005        0.7367343872
 C         -8.1093277272       -2.6099782012        1.8706209511
 H         -7.6580994936       -2.1572450168        2.7492752290
 H         -7.4748684228       -3.4297617083        1.5404115709
 H         -9.0719065995       -3.0197287294        2.1626664221
 C         -9.0441376472       -2.2828486754       -0.4121119537
 H        -10.0040515211       -2.6456396951       -0.0549897198
 H         -8.4860553621       -3.1403472685       -0.7817620082
 H         -9.2380800992       -1.5931817219       -1.2305569538
 C         -9.1671980256       -0.4186388055        1.2325130419
 H        -10.1519657589       -0.7828224088        1.5107438272
 H         -9.2868866407        0.3249749778        0.4476291152
 H         -8.7316584138        0.0657072646        2.1021456783
 H         -0.9844175381        0.6657193647       -3.3827168432
