77
       -105.32583328
 H         -0.0936860650        1.9397341968        0.0915619987
 C          0.9244975206        1.5793909171        0.1086017476
 C          3.5563355400        0.6555211835        0.1805157950
 C          1.1594022863        0.2485346047        0.4596539520
 C          1.9497946612        2.4407894714       -0.2054864959
 C          3.2893285117        2.0010213573       -0.1806314119
 C          2.4949161158       -0.2344736632        0.5063391321
 H          1.7373206562        3.4658659765       -0.4684234269
 C          4.8967898181        0.2096160437        0.2183114825
 C          7.6005513244       -0.6993105528        0.2929865610
 C          5.2041868852       -1.1229385330        0.5816612347
 C          5.9591329702        1.0902568112       -0.1032191644
 C          7.2852469888        0.6139614892       -0.0584939942
 C          6.5503493227       -1.5499006087        0.6111431838
 H          8.0732020594        1.3080501923       -0.3091388106
 H          6.7420012669       -2.5728516409        0.8927802006
 C          4.3610449574        2.8649497232       -0.4957936471
 H          4.1406491412        3.8865694325       -0.7668280984
 C          5.6606294915        2.4244184019       -0.4593781783
 H          6.4695720544        3.0970196206       -0.7020611303
 C          2.8371419486       -1.5611982581        0.8680949210
 H          2.0630899917       -2.2664787213        1.1276330680
 C          4.1391763606       -1.9892471153        0.9067111936
 H          4.3616891788       -3.0071749625        1.1900550440
 C          9.0522876693       -1.1375569215        0.3116819170
 C          9.8201171836       -0.2617490413        1.3140913268
 H          9.8067790360        0.7874026931        1.0322571457
 H         10.8568179623       -0.5832467133        1.3560322522
 H          9.3916810507       -0.3567001795        2.3095119402
 C          9.6384246654       -0.9529162267       -1.0970492706
 H         10.6715545632       -1.2882067915       -1.1063959341
 H          9.6214110268        0.0868348169       -1.4118344886
 H          9.0807251833       -1.5417706757       -1.8221910539
 C          9.2172696394       -2.6024151943        0.7190465206
 H          8.7147018980       -3.2672358660        0.0198738385
 H          8.8409900710       -2.7788583041        1.7243143584
 H         10.2731564384       -2.8585803746        0.7142247462
 C         -0.0326957916       -0.5880252702        0.8272653373
 H         -0.3360288545       -0.2910998044        1.8342413301
 H          0.2261951657       -1.6486710181        0.8730281217
 H          0.1693529900       -0.6407527831       -1.7996949012
 C         -0.8626873866       -0.5175645284       -1.5055101617
 C         -3.5316079845       -0.2280290065       -0.7447475387
 C         -1.8352802182       -0.4401286862       -2.4751453322
 C         -1.1693236594       -0.4501461510       -0.1450916797
 C         -2.5249438601       -0.3104691599        0.2575316150
 C         -3.1916808260       -0.2895979484       -2.1205269199
 C         -4.8898624674       -0.0887690205       -0.3803415624
 C         -7.6296980371        0.1983354246        0.3631850632
 C         -5.8979230079       -0.0063387158       -1.3725666514
 C         -5.2697221729       -0.0329160997        0.9815614122
 C         -6.6324426548        0.1094572615        1.3251043577
 C         -7.2433564407        0.1359996728       -0.9763812876
 H         -6.8800291257        0.1477931189        2.3737786142
 H         -7.9887075380        0.1969521805       -1.7549734388
 C         -2.9392922322       -0.2547663409        1.6115481168
 H         -2.2086680346       -0.3210500422        2.4025639555
 C         -4.2585740328       -0.1234781879        1.9612408374
 H         -4.5367582051       -0.0874838568        3.0039656581
 C         -4.2101956732       -0.2086717201       -3.0954151421
 H         -3.9347165870       -0.2591388347       -4.1381549285
 C         -5.5272883864       -0.0700549592       -2.7343651358
 H         -6.2949328719       -0.0099635885       -3.4911976759
 C         -9.0976016815        0.3593565881        0.7085248992
 C         -9.8766729376       -0.8288998531        0.1232788710
 H         -9.8055371298       -0.8689180294       -0.9600737439
 H        -10.9267390333       -0.7381603910        0.3859210814
 H         -9.5023460780       -1.7666848388        0.5281016866
 C         -9.6056188720        1.6711416312        0.0893491433
 H        -10.6510888833        1.8127494334        0.3477166964
 H         -9.5264434441        1.6671597446       -0.9942410504
 H         -9.0403440326        2.5177968231        0.4730512869
 C         -9.3432915183        0.4065249470        2.2173145611
 H         -8.8348140183        1.2520615883        2.6754590693
 H         -9.0249218270       -0.5150638941        2.6995843479
 H        -10.4073759810        0.5235848920        2.4032062420
 H         -1.5678866939       -0.4998265283       -3.5191842041
