77
       -105.32572240
 H         -0.2234436986        1.8540055503       -1.7593379193
 C          0.7045904578        1.4249607626       -1.4120535184
 C          3.1234721766        0.3317509434       -0.5419150535
 C          1.0595509184        1.5690921307       -0.0750096081
 C          1.5120961981        0.7568955226       -2.3095841775
 C          2.7325710295        0.1893372799       -1.8978997543
 C          2.2984914027        1.0306274774        0.3798362254
 H          1.2120078094        0.6677304234       -3.3427159646
 C          4.3513644249       -0.2237431277       -0.1175981340
 C          6.8173225452       -1.3682496314        0.7450724386
 C          4.7767717443       -0.0863064644        1.2238485379
 C          5.1802639497       -0.9244103798       -1.0295608292
 C          6.3952457508       -1.4822425781       -0.5749827734
 C          6.0008425233       -0.6615594934        1.6257442264
 H          6.9990382855       -2.0109764128       -1.2950803892
 H          6.2963708322       -0.5394494168        2.6568614979
 C          3.5771196984       -0.5031490115       -2.7949027465
 H          3.2711701816       -0.5982376624       -3.8260195584
 C          4.7655994070       -1.0466650234       -2.3739039377
 H          5.3986969761       -1.5737013412       -3.0718800487
 C          2.7596517890        1.1678738179        1.7110813513
 H          2.1696460003        1.7146363202        2.4297183770
 C          3.9545458268        0.6310000259        2.1191952023
 H          4.2781724173        0.7555924335        3.1417840538
 C          8.1111438528       -1.9778881628        1.2507212549
 C          8.8792641078       -2.7174878609        0.1540696019
 H          8.2968503402       -3.5423358605       -0.2506763930
 H          9.7901884358       -3.1347078170        0.5744634267
 H          9.1674987455       -2.0447490794       -0.6505735600
 C          7.7758483167       -2.9771961897        2.3692708787
 H          7.1173960141       -3.7593209092        1.9973021890
 H          7.2938179337       -2.4940528901        3.2147648477
 H          8.6902235884       -3.4421041449        2.7263576052
 C          9.0050512273       -0.8568254781        1.8023684662
 H          9.2206665374       -0.1246117782        1.0273291657
 H          9.9456880449       -1.2785372845        2.1446729429
 H          8.5434445011       -0.3440316914        2.6416982338
 C          0.1659054867        2.3310531662        0.8646315677
 H          0.6311547056        3.3073190696        1.0411352680
 H          0.1233454733        1.8193228827        1.8304433365
 H         -0.9468740947        4.6420585046        0.0777593261
 C         -1.6542740779        3.8271925573        0.0359914607
 C         -3.5077396830        1.7389390032       -0.0615349939
 C         -2.9545357143        4.0884723099       -0.3508270520
 C         -1.2374862278        2.5470346411        0.3813331963
 C         -2.1671862530        1.4690888672        0.3191750922
 C         -3.9117251593        3.0566994184       -0.3980410996
 C         -4.4576481259        0.6941225072       -0.1004324383
 C         -6.3800712765       -1.4104540915       -0.1546440368
 C         -5.8030173027        0.9554725617       -0.4630497541
 C         -4.0825513951       -0.6285512937        0.2288044252
 C         -5.0531211027       -1.6519378543        0.1942509228
 C         -6.7346078302       -0.1057762382       -0.4807811035
 H         -4.7362345808       -2.6507926989        0.4537151353
 H         -7.7499117339        0.1285988693       -0.7579667087
 C         -1.8163450223        0.1339804942        0.6297415754
 H         -0.7991773417       -0.0985774002        0.9049878214
 C         -2.7394727581       -0.8791796804        0.5853351616
 H         -2.4443735464       -1.8884509257        0.8310803001
 C         -5.2555441715        3.2965051980       -0.7640763340
 H         -5.5521731340        4.3030868758       -1.0184165355
 C         -6.1758266568        2.2767311178       -0.7937070296
 H         -7.1996976630        2.4787403528       -1.0706894174
 C         -7.3709093643       -2.5595443824       -0.1635499053
 C         -6.8846525844       -3.6222345305       -1.1612093184
 H         -5.9189763037       -4.0331569506       -0.8795521291
 H         -6.8016884603       -3.1983954879       -2.1596795958
 H         -7.5985793669       -4.4400673521       -1.1962023029
 C         -8.7773463719       -2.1179788305       -0.5710771070
 H         -9.4397395566       -2.9791949270       -0.5593862535
 H         -8.7883897626       -1.7089284950       -1.5789150321
 H         -9.1800013384       -1.3851031336        0.1244761866
 C         -7.4378241237       -3.1606347969        1.2489924555
 H         -6.4795167269       -3.5631919340        1.5657161572
 H         -8.1623689095       -3.9697002499        1.2649235121
 H         -7.7505796021       -2.4079118549        1.9693291940
 H         -3.2494270620        5.0938353687       -0.6108427703
