77
       -105.32574225
 H          1.1572128889        4.6275141610        0.2883936984
 C          1.8237874917        3.7784485672        0.2577088605
 C          3.5721568394        1.6002047343        0.1912700820
 C          1.3237598753        2.5113751248        0.5338510666
 C          3.1558232299        3.9835836814       -0.0459408087
 C          4.0609557864        2.9052043879       -0.0752084196
 C          2.1998616322        1.3887706735        0.4859236461
 H          3.5156123410        4.9799861270       -0.2534378510
 C          4.4688407845        0.5089014703        0.1697071088
 C          6.2827928511       -1.6903939022        0.1518506930
 C          4.0088885983       -0.8022619980        0.4301728231
 C          5.8446680842        0.7111164472       -0.1060152277
 C          6.7211752063       -0.3961788060       -0.1072606278
 C          4.9269993435       -1.8734043878        0.4147235856
 H          7.7616406709       -0.2063622731       -0.3170378505
 H          4.5453691948       -2.8622917330        0.6194424125
 C          5.4342721178        3.0860393589       -0.3555878637
 H          5.7956097150        4.0833620399       -0.5572400921
 C          6.3022477964        2.0210409631       -0.3683002502
 H          7.3495109332        2.1780799993       -0.5790573970
 C          1.7645800001        0.0646184250        0.7291238579
 H          0.7226857732       -0.1228369145        0.9385929425
 C          2.6363461669       -0.9935905919        0.7010057349
 H          2.2769215905       -1.9934302379        0.8939757310
 C          7.2132817298       -2.8888992710        0.1587617816
 C          7.1603598231       -3.5444510911        1.5474221275
 H          7.4624646120       -2.8358211154        2.3154489130
 H          7.8423836161       -4.3893431640        1.5758439190
 H          6.1655065468       -3.9094368803        1.7877021496
 C          8.6631878904       -2.5073788323       -0.1434562549
 H          9.0561816493       -1.8207439591        0.6029657777
 H          8.7593972861       -2.0651086819       -1.1325414441
 H          9.2797942372       -3.4017884197       -0.1228529039
 C          6.7381968089       -3.8868681955       -0.9087311002
 H          6.7419820106       -3.4232287866       -1.8928474869
 H          5.7362427032       -4.2544817434       -0.7045057680
 H          7.4095571158       -4.7404065835       -0.9313058231
 C         -0.1136556405        2.3529067494        0.9321016072
 H         -0.5425692254        3.3465119617        1.1042962852
 H         -0.1492255036        1.8211276877        1.8872265695
 H          0.3869290085        1.9566694315       -1.6833140969
 C         -0.5705745531        1.5465366493       -1.3988105970
 C         -3.0628156729        0.5065750251       -0.6846554216
 C         -1.3529483106        0.9405902744       -2.3571755228
 C         -0.9866464690        1.6541960458       -0.0733448895
 C         -2.2610970140        1.1431650089        0.3007013328
 C         -2.6116205719        0.3998900096       -2.0252272744
 C         -4.3270339531       -0.0216599240       -0.3399366582
 C         -6.8659641497       -1.1106361794        0.3686520234
 C         -5.1311461095       -0.6595856302       -1.3165141801
 C         -4.8143232834        0.0808150381        0.9844126497
 C         -6.0749845236       -0.4666834738        1.3111219117
 C         -6.3814905846       -1.1898157206       -0.9375261452
 H         -6.4108094956       -0.3695379713        2.3310813956
 H         -6.9711721687       -1.6727808149       -1.7020561996
 C         -2.7837468820        1.2474699676        1.6131165730
 H         -2.2128229748        1.7479328689        2.3793912658
 C         -4.0136611199        0.7372704416        1.9429968725
 H         -4.3828304756        0.8360631942        2.9528905635
 C         -3.4320795891       -0.2294992833       -2.9872999712
 H         -3.0792368196       -0.2971166028       -4.0054910931
 C         -4.6566369777       -0.7472545720       -2.6444203961
 H         -5.2717912437       -1.2265244231       -3.3911694349
 C         -8.2128481268       -1.7229432320        0.7024234709
 C         -8.5876800698       -1.5480775714        2.1749300838
 H         -8.6697876775       -0.4965072610        2.4406926507
 H         -7.8661309846       -2.0340981628        2.8280932303
 H         -9.5552979139       -2.0082896118        2.3550192149
 C         -8.1568632233       -3.2265735886        0.3885397151
 H         -9.1070736058       -3.6859150447        0.6452242263
 H         -7.3750122598       -3.7090616580        0.9712830210
 H         -7.9677449975       -3.4155946619       -0.6645519805
 C         -9.2912637940       -1.0498048130       -0.1602936533
 H         -9.3165667232        0.0213225111        0.0278542362
 H        -10.2643578736       -1.4634578975        0.0883467266
 H         -9.1218815422       -1.2087896820       -1.2216228188
 H         -1.0069324705        0.8785215266       -3.3778094640
