77
       -105.32559828
 H         -0.0369005451        2.0774444159        0.2325430355
 C          0.9719561550        1.6916189558        0.2184373293
 C          3.5817201339        0.7045723153        0.2151163782
 C          1.1735810611        0.3329374626        0.4576298436
 C          2.0199067269        2.5531739941       -0.0193323902
 C          3.3475299435        2.0830216435       -0.0231366934
 C          2.4983003184       -0.1870754573        0.4523597816
 H          1.8316399905        3.6016871921       -0.1934358464
 C          4.9119844614        0.2270790178        0.2212976080
 C          7.5984145563       -0.7359809677        0.2483214997
 C          5.1846062197       -1.1403201113        0.4572086744
 C          5.9985776378        1.1096219691       -0.0024921838
 C          7.3176888623        0.6064102253        0.0168273499
 C          6.5210054152       -1.5923697906        0.4632693750
 H          8.1186855036        1.3071306181       -0.1566384618
 H          6.6927992286       -2.6427491271        0.6438357871
 C          4.4425588574        2.9471164130       -0.2483906710
 H          4.2476797549        3.9936922569       -0.4287132632
 C          5.7320483082        2.4763470534       -0.2366303164
 H          6.5581283948        3.1506688593       -0.4056450898
 C          2.8057186122       -1.5511999443        0.6765988783
 H          2.0132969920       -2.2624199709        0.8501701438
 C          4.0974001259       -2.0117509405        0.6810429973
 H          4.2939095656       -3.0584683533        0.8592418918
 C          9.0108430631       -1.2890247977        0.2709225481
 C          9.2703680243       -1.9266815248        1.6445891677
 H          8.5963366544       -2.7555756934        1.8423902809
 H          9.1517682598       -1.1893667261        2.4356284072
 H         10.2872856988       -2.3065623343        1.6819340011
 C         10.0678731741       -0.2101469088        0.0295847712
 H          9.9496254998        0.2495635972       -0.9491357575
 H         11.0550261153       -0.6630639793        0.0617224833
 H         10.0337033090        0.5573089274        0.7997129677
 C          9.1384604743       -2.3529217979       -0.8307704910
 H          8.9258035408       -1.9195402009       -1.8056789810
 H          8.4617295591       -3.1875650879       -0.6696027025
 H         10.1526024331       -2.7416742913       -0.8438156268
 C         -0.0370563528       -0.4954784757        0.7793132194
 H         -0.3456500043       -0.2252122282        1.7924368694
 H          0.2006061108       -1.5618566881        0.7958027166
 H          0.1811625854       -0.3144779935       -1.8501817486
 C         -0.8543851944       -0.2478143798       -1.5502368422
 C         -3.5344589059       -0.1050368395       -0.7851435813
 C         -1.8282333502       -0.1188696978       -2.5164683539
 C         -1.1660077935       -0.3045111620       -0.1932398250
 C         -2.5292474441       -0.2403995748        0.2124351728
 C         -3.1879664976       -0.0405777710       -2.1590365651
 C         -4.8978870169       -0.0399258446       -0.4185831616
 C         -7.6505540433        0.0903843515        0.3229680008
 C         -5.9069500968        0.0915644102       -1.4056249736
 C         -5.2815691435       -0.1100615963        0.9406164023
 C         -6.6486980604       -0.0416023107        1.2819015332
 C         -7.2610844583        0.1546034388       -1.0106036773
 H         -6.9060565928       -0.0953220386        2.3289409206
 H         -8.0007685489        0.2563140692       -1.7885649062
 C         -2.9475993824       -0.3123134163        1.5633979617
 H         -2.2175070874       -0.4232497168        2.3497986875
 C         -4.2715125594       -0.2512967219        1.9159826921
 H         -4.5536616147       -0.3119896126        2.9565026151
 C         -4.2073383733        0.0891284930       -3.1290623608
 H         -3.9278049485        0.1353883927       -4.1709572918
 C         -5.5293245671        0.1536023540       -2.7648579272
 H         -6.2962876085        0.2506042849       -3.5185594046
 C         -9.1013462896        0.1591243731        0.7608329769
 C         -9.2788533850        1.3752057845        1.6835664663
 H         -9.0024991665        2.2907867951        1.1650500363
 H         -8.6761058371        1.2936341886        2.5839022572
 H        -10.3197875794        1.4537569332        1.9837154906
 C         -9.4484773436       -1.1291131330        1.5231252580
 H         -8.8438539411       -1.2475834381        2.4180913591
 H         -9.2989101310       -1.9997043593        0.8881748806
 H        -10.4914679469       -1.1020735967        1.8252117543
 C        -10.0647797215        0.2996124873       -0.4187803451
 H        -11.0841905194        0.3413738343       -0.0450215874
 H         -9.9962713285       -0.5533442775       -1.0903441655
 H         -9.8809505156        1.2168013133       -0.9739807758
 H         -1.5549042962       -0.0830890755       -3.5601226361
