77
       -105.32632763
 H          0.5613872588        3.6203202429        0.1729773473
 C          1.4129283986        2.9561479226        0.1620209073
 C          3.6243934800        1.2530140086        0.1496347558
 C          1.2500813819        1.6423231660        0.5988836019
 C          2.6316513468        3.4344915219       -0.2664606492
 C          3.7693005531        2.6012430860       -0.2674058518
 C          2.3608736323        0.7559528565        0.5693628202
 H          2.7290340565        4.4591734178       -0.5914437376
 C          4.7554894707        0.4066684613        0.1475482246
 C          7.0414417402       -1.2980682940        0.1781348710
 C          4.6437110033       -0.9459301173        0.5476439615
 C          6.0224952042        0.8997867347       -0.2507759366
 C          7.1356226693        0.0347055902       -0.2251164994
 C          5.7910563160       -1.7705037262        0.5541469258
 H          8.0887497773        0.4385811495       -0.5314012675
 H          5.6662328254       -2.7946554246        0.8673062516
 C          5.0383187563        3.0722682053       -0.6700620545
 H          5.1339014211        4.1003195329       -0.9858823226
 C          6.1364832755        2.2475049268       -0.6588351394
 H          7.1014352361        2.6244492859       -0.9630331814
 C          2.2740260742       -0.6091739435        0.9380748513
 H          1.3209589281       -1.0249607942        1.2259574626
 C          3.3733268479       -1.4291355688        0.9280094112
 H          3.2748995378       -2.4643963925        1.2189049778
 C          8.2882359552       -2.1617022802        0.1890751689
 C          8.0088257503       -3.5878196627        0.6657573612
 H          7.6257880717       -3.5970929971        1.6838477671
 H          8.9354034722       -4.1551628316        0.6584553740
 H          7.3071493433       -4.0959257346        0.0078787121
 C          9.3190225633       -1.5236224414        1.1333261939
 H         10.2078412575       -2.1467457219        1.1736263092
 H          8.9139237889       -1.4396744973        2.1394586864
 H          9.6200008142       -0.5343675441        0.7999948715
 C          8.8574902997       -2.2249393360       -1.2369699184
 H          9.1482952042       -1.2443670354       -1.6032669934
 H          8.1244838560       -2.6455801267       -1.9220040639
 H          9.7385977193       -2.8600633527       -1.2470681117
 C         -0.0981380990        1.2373201274        1.1184032248
 H         -0.5541572028        2.1198540204        1.5776391033
 H          0.0060316208        0.4861840744        1.9067695481
 H          0.4359688687        0.5814096466       -1.4572412426
 C         -0.6053648126        0.4348667751       -1.2126921961
 C         -3.3079524888        0.0569529648       -0.6140136507
 C         -1.4645843013       -0.0194971619       -2.1933715624
 C         -1.0488102603        0.7154220769        0.0741144259
 C         -2.4224306837        0.5132893849        0.3984823336
 C         -2.8319698570       -0.2109712438       -1.9229701898
 C         -4.6786077422       -0.1316264169       -0.3277955702
 C         -7.4490847253       -0.4950696059        0.2444691300
 C         -5.5716986320       -0.5764677854       -1.3349638672
 C         -5.1837388830        0.1237601444        0.9678478224
 C         -6.5583613249       -0.0634707839        1.2255372985
 C         -6.9384883544       -0.7474478792       -1.0239632302
 H         -6.9127361839        0.1414967185        2.2244834640
 H         -7.5891121393       -1.0852338102       -1.8146912585
 C         -2.9542158363        0.7479024103        1.6889136894
 H         -2.3052870143        1.0802611131        2.4837921690
 C         -4.2852264192        0.5603628229        1.9650369428
 H         -4.6595898075        0.7503779416        2.9598797416
 C         -3.7364409401       -0.6586569297       -2.9126560777
 H         -3.3611730148       -0.8598153221       -3.9048941496
 C         -5.0680565923       -0.8349330069       -2.6286848340
 H         -5.7464201575       -1.1745343868       -3.3969683635
 C         -8.9157765824       -0.6698077788        0.5904916055
 C         -9.0364108503       -1.7067968985        1.7180009558
 H         -8.5301421260       -1.3838956416        2.6235284916
 H         -8.6130650754       -2.6594220020        1.4069394339
 H        -10.0844732269       -1.8611141154        1.9578962642
 C         -9.7465019807       -1.1490087612       -0.6011064771
 H        -10.7833707198       -1.2557428139       -0.2944251830
 H         -9.4077128727       -2.1197893291       -0.9561017676
 H         -9.7182346454       -0.4314495683       -1.4181446044
 C         -9.4736014705        0.6820503149        1.0622185121
 H         -8.9728612304        1.0384994848        1.9581923242
 H        -10.5308864457        0.5787406660        1.2886881873
 H         -9.3626800387        1.4332544900        0.2832265158
 H         -1.0900732514       -0.2257204904       -3.1846633323
