77
       -105.32544369
 H         -0.1926038921        1.8245166295        0.4029138612
 C          0.8358126431        1.4961420564        0.3649666437
 C          3.4948842798        0.6557696215        0.2844233918
 C          1.1259968893        0.1646187543        0.6580105877
 C          1.8211835213        2.4024040789        0.0409817060
 C          3.1712206530        2.0050677044       -0.0093450274
 C          2.4772709955       -0.2794018428        0.6239550636
 H          1.5654613433        3.4289391003       -0.1734368842
 C          4.8480710345        0.2505253944        0.2385053284
 C          7.5789086410       -0.5716170120        0.1329074684
 C          5.2096591179       -1.0853281356        0.5294592451
 C          5.8688791310        1.1749293462       -0.0979421809
 C          7.2116883975        0.7410658638       -0.1431136428
 C          6.5665534033       -1.4673315664        0.4699804257
 H          7.9605746710        1.4716616702       -0.4039974727
 H          6.8072743481       -2.4950178691        0.6965907161
 C          4.2024457282        2.9134860211       -0.3380219120
 H          3.9399451479        3.9379817850       -0.5555233875
 C          5.5143428440        2.5119326128       -0.3816288257
 H          6.2907568145        3.2185032271       -0.6338510234
 C          2.8737795334       -1.6075983687        0.9141626295
 H          2.1338787771       -2.3459016879        1.1814531993
 C          4.1880644788       -1.9971539185        0.8711433678
 H          4.4534439460       -3.0183159772        1.1009558444
 C          9.0166772750       -1.0520864792        0.0765902968
 C          9.4113533042       -1.5994069875        1.4569318839
 H          9.3089822893       -0.8274707128        2.2165455420
 H         10.4482468130       -1.9222396221        1.4361237682
 H          8.8017842958       -2.4508638328        1.7465428215
 C          9.9937703562        0.0624404188       -0.3012439358
 H         11.0029567763       -0.3395273777       -0.3254873065
 H          9.9787398136        0.8675347556        0.4300458585
 H          9.7763269995        0.4626549445       -1.2891076903
 C          9.1183281712       -2.1675213544       -0.9758182777
 H          8.4996277827       -3.0236704667       -0.7211857443
 H         10.1476283304       -2.5071932385       -1.0461113724
 H          8.8123228318       -1.7990338151       -1.9526254007
 C         -0.0306706252       -0.7196149926        1.0313720215
 H         -0.3664651341       -0.4214172032        2.0265832661
 H          0.2725460611       -1.7665038142        1.0966210992
 H          0.2315252919       -1.0261056324       -1.5610540671
 C         -0.8028446451       -0.8384573956       -1.3125066831
 C         -3.4765238754       -0.3739497183       -0.6654375654
 C         -1.7444880107       -0.8197109046       -2.3145998019
 C         -1.1443252763       -0.6339370009        0.0259384373
 C         -2.5013903252       -0.3954813268        0.3710184875
 C         -3.1030542454       -0.5869689234       -2.0171820058
 C         -4.8364813128       -0.1422836362       -0.3590607284
 C         -7.5794747392        0.3347183706        0.2659214545
 C         -5.8135376201       -0.1228241730       -1.3849904771
 C         -5.2492069659        0.0717706713        0.9774759806
 C         -6.6127370783        0.3068531221        1.2620871540
 C         -7.1614033418        0.1140909097       -1.0471886620
 H         -6.8858055181        0.4668092931        2.2928039318
 H         -7.8828236849        0.1216173758       -1.8502785364
 C         -2.9481051225       -0.1790618873        1.6984235397
 H         -2.2414472541       -0.1887922088        2.5136658020
 C         -4.2688123935        0.0439355850        1.9917575536
 H         -4.5721666672        0.2024093585        3.0158994581
 C         -4.0910626004       -0.5666964739       -3.0259693890
 H         -3.7901185831       -0.7334483820       -4.0493764140
 C         -5.4103682432       -0.3418397624       -2.7212078025
 H         -6.1547049179       -0.3306869239       -3.5031987694
 C         -9.0476561655        0.5906925298        0.5466753786
 C         -9.3284243591        0.8270295782        2.0313295299
 H         -8.7936088029        1.6990378274        2.4015069873
 H         -9.0642412991       -0.0430176260        2.6283253292
 H        -10.3904393963        1.0097921630        2.1701386885
 C         -9.8574201182       -0.6306265616        0.0835362865
 H        -10.9101570083       -0.4693704801        0.2970759989
 H         -9.5338556392       -1.5249364958        0.6116673079
 H         -9.7553651373       -0.8055936507       -0.9838850741
 C         -9.4894692914        1.8361681553       -0.2380057232
 H        -10.5330135845        2.0480370472       -0.0236151946
 H         -9.3905234812        1.6981189968       -1.3110890615
 H         -8.8975584390        2.7008892638        0.0543730058
 H         -1.4517188841       -0.9893047864       -3.3395727936
