77
       -105.32533418
 H          1.2386678368        4.7461936050        0.1917248341
 C          1.8753409049        3.8741333022        0.1736972496
 C          3.5471405668        1.6354883261        0.1395501987
 C          1.3302606908        2.6281873535        0.4601308051
 C          3.2151934578        4.0292396792       -0.1254670373
 C          4.0820932404        2.9195100110       -0.1399630259
 C          2.1673087285        1.4755283981        0.4309771005
 H          3.6105023147        5.0101785350       -0.3418852037
 C          4.4052483087        0.5133995028        0.1347428874
 C          6.1410044356       -1.7481094851        0.1496867176
 C          3.8991172525       -0.7774565517        0.4102858461
 C          5.7881493054        0.6639746416       -0.1387386148
 C          6.6252597384       -0.4733093625       -0.1237912341
 C          4.7790412417       -1.8801684604        0.4108618731
 H          7.6723268678       -0.3227333477       -0.3325789739
 H          4.3624398004       -2.8523992075        0.6268351659
 C          5.4617794494        3.0488211046       -0.4174185527
 H          5.8586201391        4.0304567898       -0.6290744774
 C          6.2919566148        1.9539359922       -0.4149227871
 H          7.3446957607        2.0718280591       -0.6239478346
 C          1.6859848337        0.1709258571        0.6918772217
 H          0.6379522766        0.0230555099        0.9026303162
 C          2.5202815310       -0.9171949487        0.6806434726
 H          2.1260576016       -1.9011389021        0.8869218599
 C          7.0284002962       -2.9786564045        0.1739287948
 C          6.5211921675       -3.9717827774       -0.8832652109
 H          7.1616531759       -4.8489750259       -0.8933465640
 H          6.5445454084       -3.5204418009       -1.8728088141
 H          5.5060917453       -4.3008583696       -0.6781629169
 C          6.9482128036       -3.6153787606        1.5700279801
 H          7.2727071824       -2.9087269828        2.3306981856
 H          7.6000066932       -4.4833105300        1.6107789548
 H          5.9404194804       -3.9423408004        1.8111504617
 C          8.4917545147       -2.6523538316       -0.1279760420
 H          8.9066122549       -1.9711312678        0.6115290965
 H          8.6064177911       -2.2256616195       -1.1219166346
 H          9.0762164081       -3.5677154683       -0.0946855089
 C         -0.1142132497        2.5197463008        0.8502170650
 H         -0.5250886969        3.5285102796        0.9701518450
 H         -0.1672673457        2.0354312355        1.8290930773
 H          0.3468671091        2.1425135207       -1.7664797213
 C         -0.5903183892        1.6984643021       -1.4655101289
 C         -3.0296461380        0.5669999912       -0.7103695952
 C         -1.3676792792        1.0639395406       -2.4118207334
 C         -0.9859079105        1.7910395985       -0.1345901976
 C         -2.2375792651        1.2363490811        0.2613676229
 C         -2.5970234222        0.4761305365       -2.0580984898
 C         -4.2661906027       -0.0105465293       -0.3444362091
 C         -6.7445103403       -1.2087880193        0.4025223916
 C         -5.0612475563       -0.6840347265       -1.3056576941
 C         -4.7341844330        0.0767100255        0.9870421297
 C         -5.9635731161       -0.5239346377        1.3312344926
 C         -6.2830035433       -1.2696943767       -0.9078841286
 H         -6.2917391751       -0.4400086551        2.3562705186
 H         -6.8598001113       -1.7774056514       -1.6643254015
 C         -2.7439345363        1.3279275553        1.5801986336
 H         -2.1834891632        1.8563179695        2.3353820640
 C         -3.9475372273        0.7708050938        1.9312544071
 H         -4.3054438948        0.8605767894        2.9460339246
 C         -3.4099017886       -0.1865153091       -3.0053143075
 H         -3.0729965792       -0.2404019817       -4.0297308232
 C         -4.6062103741       -0.7531137518       -2.6406705923
 H         -5.2143590076       -1.2576633507       -3.3764147085
 C         -8.0435412750       -1.8531285735        0.8480831960
 C         -8.9698844493       -0.7647265508        1.4113139630
 H         -8.5405278848       -0.2750200245        2.2810016215
 H         -9.9135767663       -1.2112995902        1.7110072601
 H         -9.1739424523       -0.0090764441        0.6559079106
 C         -7.7258994389       -2.8861113637        1.9409811872
 H         -7.0451457359       -3.6454423915        1.5619282261
 H         -8.6431207337       -3.3760578755        2.2546207116
 H         -7.2760549694       -2.4259983371        2.8165373211
 C         -8.7680126078       -2.5650235024       -0.2955933936
 H         -8.1609932417       -3.3661755557       -0.7116876593
 H         -9.0439715336       -1.8687644615       -1.0843493521
 H         -9.6837411722       -3.0105507740        0.0832585124
 H         -1.0370851941        1.0157484192       -3.4383234932
