77
       -105.32524980
 H         -0.2432195486        1.7579482039        0.5615818229
 C          0.7885715692        1.4453546573        0.4940272011
 C          3.4565382171        0.6453184611        0.3343985058
 C          1.1048980517        0.1135432930        0.7564790409
 C          1.7532870584        2.3721606432        0.1657908527
 C          3.1073761612        1.9958110796        0.0777756024
 C          2.4603085872       -0.3113607919        0.6777374782
 H          1.4782295689        3.3988278751       -0.0225302306
 C          4.8136399729        0.2604033648        0.2472948704
 C          7.5520822743       -0.5205735610        0.0578415725
 C          5.2003202696       -1.0764165159        0.4988916411
 C          5.8134591942        1.2064961887       -0.0919752610
 C          7.1605593278        0.7927488945       -0.1789522165
 C          6.5604073474       -1.4378356669        0.3984209350
 H          7.8929982985        1.5395884867       -0.4405371938
 H          6.8204491243       -2.4668198842        0.5958837988
 C          4.1180680927        2.9259692017       -0.2540378557
 H          3.8364605362        3.9511598228       -0.4424466028
 C          5.4340258270        2.5443823249       -0.3366432160
 H          6.1945461543        3.2675154736       -0.5903494164
 C          2.8817524888       -1.6402335997        0.9268217197
 H          2.1587041714       -2.3953559619        1.1933377451
 C          4.1997005795       -2.0102421695        0.8431297582
 H          4.4842772784       -3.0326455147        1.0424032330
 C          8.9943753406       -0.9794855546       -0.0438047241
 C          9.4286020798       -1.5555893905        1.3128052784
 H          9.3280846312       -0.8062075180        2.0949455264
 H         10.4706593553       -1.8577589560        1.2617268782
 H          8.8414743940       -2.4261100355        1.5919128489
 C          9.9474253877        0.1575024225       -0.4160322981
 H          9.7012839875        0.5794603834       -1.3880076432
 H         10.9609454319       -0.2298235386       -0.4742940149
 H          9.9391564238        0.9436495380        0.3357176086
 C          9.0860301527       -2.0669297787       -1.1260563288
 H          8.4807231481       -2.9354629258       -0.8812990092
 H         10.1169997135       -2.3941524606       -1.2250011157
 H          8.7571523479       -1.6769732475       -2.0869796076
 C         -0.0314345145       -0.7930317434        1.1403856994
 H         -0.3845676433       -0.4864761314        2.1265012539
 H          0.2972750936       -1.8301208347        1.2260014182
 H          0.2455347916       -1.2947945738       -1.4169772897
 C         -0.7855943685       -1.0614347723       -1.1951713926
 C         -3.4509232506       -0.4750699844       -0.6160798730
 C         -1.7173897184       -1.0961247891       -2.2060700499
 C         -1.1343831040       -0.7482944517        0.1200448792
 C         -2.4855485707       -0.4388695488        0.4291468266
 C         -3.0722247400       -0.8080091326       -1.9418866362
 C         -4.8060984977       -0.1808688259       -0.3442032768
 C         -7.5385771329        0.4266205079        0.2095394192
 C         -5.7741227196       -0.2212243365       -1.3780739819
 C         -5.2229765833        0.1574695327        0.9651012529
 C         -6.5811782006        0.4548647217        1.2146482313
 C         -7.1170364237        0.0821094350       -1.0755367310
 H         -6.8576516628        0.7090364985        2.2253410786
 H         -7.8316565420        0.0415970926       -1.8837146713
 C         -2.9358363299       -0.0954230596        1.7282820411
 H         -2.2355647693       -0.0520511477        2.5480038367
 C         -4.2515362669        0.1900703577        1.9878360602
 H         -4.5578276453        0.4457163473        2.9912580979
 C         -4.0514193129       -0.8462823935       -2.9587542293
 H         -3.7470272540       -1.1054166743       -3.9617141450
 C         -5.3667147799       -0.5631896382       -2.6869243916
 H         -6.1044709018       -0.5989901525       -3.4743974030
 C         -8.9997056030        0.7529615129        0.4513361038
 C         -9.2870428914        1.1122912762        1.9098396535
 H         -9.0578524030        0.2826251845        2.5749304822
 H        -10.3436471208        1.3398177369        2.0210714046
 H         -8.7271845151        1.9923999332        2.2187219816
 C         -9.8492258337       -0.4701367463        0.0721516489
 H         -9.7481418800       -0.7263440494       -0.9787868256
 H        -10.8967857512       -0.2572443198        0.2649511719
 H         -9.5603351088       -1.3340538058        0.6667876706
 C         -9.3870584239        1.9498451829       -0.4318300277
 H         -8.7716116101        2.8146429735       -0.1931855188
 H        -10.4264298346        2.2102499754       -0.2537179672
 H         -9.2743255353        1.7286490137       -1.4895727096
 H         -1.4201828269       -1.3519033746       -3.2117008512
