77
       -105.32507662
 H         -0.2767463811        1.7726657077        0.8584485194
 C          0.7477705562        1.4562945077        0.7278567180
 C          3.3967208059        0.6418588766        0.4055022374
 C          1.0751772720        0.1215362292        0.9718190668
 C          1.6937113802        2.3782434681        0.3442755771
 C          3.0409515909        1.9961596814        0.1793028027
 C          2.4162946085       -0.3121090776        0.7985633818
 H          1.4136903531        3.4066033130        0.1735091331
 C          4.7443484017        0.2504863319        0.2388669936
 C          7.4633946542       -0.5472522764       -0.0975870207
 C          5.1384095871       -1.0916302282        0.4530832774
 C          5.7278382473        1.1962122335       -0.1432363507
 C          7.0636743721        0.7743716986       -0.3006882661
 C          6.4902404491       -1.4628704506        0.2796312320
 H          7.7906368724        1.5181794035       -0.5900814705
 H          6.7491558632       -2.4951984679        0.4522258215
 C          4.0348902129        2.9247334715       -0.2005359275
 H          3.7479159758        3.9523718830       -0.3658678139
 C          5.3429232383        2.5387655548       -0.3561121671
 H          6.0922072118        3.2609346304       -0.6437357220
 C          2.8432948973       -1.6483373005        1.0003371905
 H          2.1309862414       -2.4043957849        1.2924687247
 C          4.1514117488       -2.0245672294        0.8353144163
 H          4.4398015389       -3.0519521259        1.0006951731
 C          8.9193482362       -0.9235796607       -0.2937822853
 C          9.1813421854       -2.4082171312       -0.0366498387
 H          8.6146383433       -3.0349759785       -0.7218334179
 H          8.9426493909       -2.6809754780        0.9889389893
 H         10.2354823273       -2.6184867669       -0.1951499252
 C          9.7768756498       -0.0996655638        0.6796387369
 H          9.6923464745        0.9674249224        0.4937724655
 H         10.8209411346       -0.3771161003        0.5664108941
 H          9.4802285744       -0.2948723030        1.7078902388
 C          9.3199805660       -0.6005873583       -1.7420040840
 H          9.2295941527        0.4593732449       -1.9627507594
 H          8.6967897723       -1.1528092382       -2.4422156292
 H         10.3545952656       -0.8886657000       -1.9045153958
 C         -0.0409861282       -0.7765685397        1.4299624080
 H         -0.4297261351       -0.3795483132        2.3683065672
 H          0.3167005169       -1.7869422902        1.6309613793
 H          0.2755948937       -1.7141664475       -0.9991394310
 C         -0.7487069183       -1.4047159141       -0.8514279136
 C         -3.3974573378       -0.6182335881       -0.4644015243
 C         -1.6559489710       -1.5693953754       -1.8720762257
 C         -1.1159389351       -0.8632757935        0.3815549004
 C         -2.4571954279       -0.4458805266        0.5900999120
 C         -3.0022141905       -1.1857733999       -1.7027712774
 C         -4.7440751900       -0.2274123999       -0.2885655828
 C         -7.4603147133        0.5696581711        0.0713081978
 C         -5.6877472233       -0.4029099456       -1.3308413736
 C         -5.1768308442        0.3440590907        0.9315130233
 C         -6.5265367226        0.7310773294        1.0860376533
 C         -7.0231208316       -0.0009741119       -1.1249227510
 H         -6.8157367591        1.1625579225        2.0308752086
 H         -7.7191634798       -0.1487643867       -1.9368060255
 C         -2.9224222208        0.1324351546        1.7974468275
 H         -2.2412757213        0.2856442382        2.6201957957
 C         -4.2294715291        0.5119108111        1.9634937736
 H         -4.5477687073        0.9469691556        2.8991493212
 C         -3.9571121091       -1.3547276992       -2.7294424991
 H         -3.6406333231       -1.7916631723       -3.6646726230
 C         -5.2644201827       -0.9764682383       -2.5505727854
 H         -5.9836235655       -1.1145119371       -3.3439018285
 C         -8.9121128903        0.9850085064        0.2115165913
 C         -9.2289402998        2.0320605304       -0.8681784962
 H         -9.1026192987        1.6335638891       -1.8710257360
 H         -8.5827254397        2.9003939870       -0.7584966065
 H        -10.2599557235        2.3580161095       -0.7653595010
 C         -9.2191882592        1.5912663289        1.5815805216
 H         -8.6325952590        2.4903660559        1.7575730589
 H         -9.0385099397        0.8759433099        2.3808852313
 H        -10.2683431064        1.8708183709        1.6223908499
 C         -9.8016875788       -0.2523278396        0.0136581320
 H        -10.8439848553        0.0277941555        0.1362083709
 H         -9.5631284412       -1.0152079529        0.7515592054
 H         -9.6857017275       -0.6833782151       -0.9768374790
 H         -1.3460773370       -2.0016639817       -2.8113382732
