77
  -105.32646967
 H          0.7484093720        3.9503703401        0.2725506145
 C          1.5474665189        3.2245159142        0.2418611477
 C          3.6278063950        1.3633126929        0.1780263685
 C          1.2787954460        1.9061112276        0.6034817464
 C          2.8083785176        3.6315920756       -0.1380965700
 C          3.8813867061        2.7170863049       -0.1623536618
 C          2.3223883417        0.9419154059        0.5467582311
 H          2.9880825932        4.6616459485       -0.4060944695
 C          4.6924731842        0.4352887470        0.1530130185
 C          6.8426887053       -1.4371912821        0.1321807654
 C          4.4704729471       -0.9238151040        0.4775080496
 C          6.0018674533        0.8520009423       -0.1919559700
 C          7.0465356190       -0.0950329151       -0.1915698154
 C          5.5523685701       -1.8324430837        0.4591726196
 H          8.0347889688        0.2516400249       -0.4533851207
 H          5.3442647708       -2.8593539540        0.7135181197
 C          5.1914194302        3.1118096060       -0.5125887842
 H          5.3708433436        4.1449573842       -0.7698831463
 C          6.2249941677        2.2071321817       -0.5232627291
 H          7.2223995813        2.5259956254       -0.7865125666
 C          2.1247725654       -0.4288473965        0.8435949027
 H          1.1368599843       -0.7825881849        1.0947453325
 C          3.1595545969       -1.3283207483        0.8093344419
 H          2.9780377304       -2.3666286437        1.0439671427
 C          8.0197766672       -2.3935748695        0.1153306195
 C          7.6195578357       -3.8219491058        0.4877966195
 H          7.2127334786       -3.8696602924        1.4955266997
 H          8.4994119245       -4.4587206107        0.4587111620
 H          6.8965692607       -4.2276688225       -0.2165778721
 C          9.0670812141       -1.8996366047        1.1255998960
 H          8.6411167547       -1.8556607549        2.1256489087
 H          9.4469215699       -0.9144063557        0.8698975860
 H          9.9073773293       -2.5877790754        1.1418478354
 C          8.6248889159       -2.4079574568       -1.2971223210
 H          9.0028200198       -1.4320600316       -1.5886986242
 H          7.8820186429       -2.7223409726       -2.0271295897
 H          9.4534549006       -3.1096082783       -1.3288749998
 C         -0.0994321902        1.5635501826        1.0866701122
 H         -0.5605508112        2.4804431264        1.4682842877
 H         -0.0319180062        0.8674080611        1.9282605678
 H          0.4361777999        0.9856639444       -1.5109169854
 C         -0.5868551817        0.7586905651       -1.2511151796
 C         -3.2453802383        0.1850386581       -0.6098037950
 C         -1.4287226944        0.2592679534       -2.2221138319
 C         -1.0257646107        0.9868800723        0.0498849119
 C         -2.3761407572        0.6929496848        0.3919181861
 C         -2.7750888844       -0.0358278183       -1.9296645410
 C         -4.5945228055       -0.1000566119       -0.3024112000
 C         -7.3203424765       -0.6614543044        0.3208856849
 C         -5.4697572191       -0.5981189080       -1.2990048388
 C         -5.0962401102        0.1114903329        1.0033317520
 C         -6.4501845909       -0.1747809879        1.2878563529
 C         -6.8125985232       -0.8665496567       -0.9623861988
 H         -6.7950862326       -0.0005234008        2.2944552055
 H         -7.4566892956       -1.2441541828       -1.7421635323
 C         -2.9047374211        0.8892203956        1.6910157500
 H         -2.2695402336        1.2692731980        2.4755569539
 C         -4.2149679095        0.6092856483        1.9864351723
 H         -4.5868133284        0.7725845349        2.9869484378
 C         -3.6617764626       -0.5360574418       -2.9089796414
 H         -3.2909558818       -0.6996794916       -3.9097357785
 C         -4.9725326022       -0.8090562687       -2.6045736211
 H         -5.6387174006       -1.1881747187       -3.3650071100
 C         -8.7778713219       -0.9717897382        0.6043776807
 C         -9.1643820396       -0.6937263287        2.0579726171
 H         -9.0303780336        0.3559405770        2.3099440641
 H         -8.5899256352       -1.3102383303        2.7458909893
 H        -10.2143755483       -0.9337045319        2.2009784849
 C         -9.0325747983       -2.4577764114        0.3070477704
 H        -10.0675600815       -2.6996949847        0.5308879038
 H         -8.3934453488       -3.0854801175        0.9243048082
 H         -8.8506922472       -2.7014041203       -0.7359909888
 C         -9.6525364528       -0.0991765003       -0.3093270100
 H         -9.4578047440        0.9559607890       -0.1298458368
 H        -10.7006956718       -0.2933578237       -0.1007528422
 H         -9.4767749642       -0.3074169707       -1.3610851510
 H         -1.0607673746        0.0962427376       -3.2238200155
77
  -105.32640678
 H          0.5887915069        3.6361900749        0.3727905460
 C          1.4345145472        2.9687561906        0.2975502888
 C          3.6322793493        1.2607535958        0.0866560082
 C          1.2650330701        1.7307738576       -0.3204288674
 C          2.6533798542        3.3708784728        0.7982768649
 C          3.7846272689        2.5361056905        0.6890731126
 C          2.3678792288        0.8380401898       -0.4052816150
 H          2.7561395256        4.3388886043        1.2646185120
 C          4.7571440262        0.4135912576       -0.0255059593
 C          7.0321848446       -1.2847458722       -0.2928403931
 C          4.6374895886       -0.8686264976       -0.6117272153
 C          6.0259486920        0.8367503424        0.4415823262
 C          7.1337478282       -0.0231059177        0.2951745773
 C          5.7795072261       -1.6918057698       -0.7322741017
 H          8.0888053097        0.3273676921        0.6562908410
 H          5.6488607740       -2.6609988882       -1.1862964371
 C          5.0547752524        2.9356475313        1.1598437172
 H          5.1559511190        3.9080568904        1.6180495921
 C          6.1472375526        2.1124855581        1.0363244586
 H          7.1134101579        2.4354873456        1.3940144348
 C          2.2721233684       -0.4621672177       -0.9595285463
 H          1.3170975665       -0.8262218740       -1.3052508551
 C          3.3651059522       -1.2846045548       -1.0590083796
 H          3.2601558392       -2.2688179059       -1.4907178925
 C          8.2744134322       -2.1444232361       -0.4279753390
 C          8.8506955565       -2.4061920895        0.9723095338
 H          9.1478899097       -1.4869546422        1.4692106942
 H          9.7290721265       -3.0397825514        0.8894337336
 H          8.1193984445       -2.9149393713        1.5967442949
 C          9.3032099421       -1.3858919835       -1.2811586719
 H         10.1895025272       -2.0002567318       -1.4111876235
 H          9.6090936487       -0.4525895232       -0.8166827150
 H          8.8936212980       -1.1633844316       -2.2641357871
 C          7.9858926636       -3.4900374914       -1.0952048956
 H          7.2822119831       -4.0796113272       -0.5115851939
 H          8.9091627945       -4.0581532990       -1.1679338242
 H          7.6012751358       -3.3575434982       -2.1040911116
 C         -0.0784556158        1.4159374625       -0.9097800495
 H          0.0346950560        0.7918935805       -1.8010589121
 H         -0.5258212712        2.3597906636       -1.2370683125
 H          0.4044722088        0.4185993429        1.5652081904
 C         -0.6297917261        0.2991837056        1.2793135598
 C         -3.3143060196       -0.0080205985        0.5684070089
 C         -1.5059450287       -0.2875524476        2.1674862190
 C         -1.0470224043        0.7488094311        0.0297540531
 C         -2.4087006176        0.5843949172       -0.3514632588
 C         -2.8670538296       -0.4480563966        1.8405369731
 C         -4.6766652974       -0.1602515865        0.2267363580
 C         -7.4311832525       -0.4391889555       -0.4578690503
 C         -5.5885356140       -0.7373048927        1.1447827422
 C         -5.1550761774        0.2651870787       -1.0348373795
 C         -6.5238256979        0.1153204131       -1.3513167670
 C         -6.9449055366       -0.8617977639        0.7797052028
 H         -6.8501278326        0.4516079788       -2.3224074137
 H         -7.6172034999       -1.3026259533        1.5002532862
 C         -2.9132893939        0.9875954820       -1.6117977784
 H         -2.2484485082        1.4261783508       -2.3391991279
 C         -4.2359269253        0.8333554764       -1.9421818581
 H         -4.5884250500        1.1533347350       -2.9113717740
 C         -3.7893756962       -1.0285928777        2.7392810596
 H         -3.4352046604       -1.3613471844        3.7034554179
 C         -5.1134783748       -1.1679316406        2.4037665901
 H         -5.8071575356       -1.6094689098        3.1035099294
 C         -8.9068538117       -0.5959270859       -0.7719836656
 C         -9.2659787842       -0.0888394637       -2.1696055330
 H         -8.7376242191       -0.6449270255       -2.9409036053
 H         -9.0514878980        0.9725365732       -2.2733856854
 H        -10.3306872990       -0.2260158739       -2.3372895346
 C         -9.7139506944        0.2061382593        0.2609717006
 H        -10.7735360685        0.1231738020        0.0368325397
 H         -9.4383406485        1.2579987237        0.2271765695
 H         -9.5562929567       -0.1583881119        1.2722982923
 C         -9.2777395506       -2.0843298108       -0.6823927407
 H         -8.6878475600       -2.6675588246       -1.3861830554
 H        -10.3278363711       -2.2113426248       -0.9294319748
 H         -9.1186187613       -2.4845934054        0.3149966615
 H         -1.1538065669       -0.6237395234        3.1309971214
77
  -105.32640432
 H         -0.3130326143        1.8644877170       -0.8545944938
 C          0.6648986864        1.4798487012       -0.6069724992
 C          3.2115188698        0.5190081286        0.0245487265
 C          1.0689853325        0.2569030616       -1.1353679974
 C          1.4860406756        2.2194189044        0.2171553298
 C          2.7749757756        1.7604012109        0.5540515085
 C          2.3649777201       -0.2430427872       -0.8239026545
 H          1.1467134404        3.1666094191        0.6083653075
 C          4.5051988824        0.0502262145        0.3447687389
 C          7.1155980269       -0.9015278040        0.9877171666
 C          4.9744645208       -1.1798988884       -0.1730509470
 C          5.3570735166        0.8075384120        1.1862177254
 C          6.6427777140        0.3125337729        1.4869756377
 C          6.2712427289       -1.6306045708        0.1604148968
 H          7.2702766904        0.9112597465        2.1298436509
 H          6.5925650625       -2.5729991177       -0.2533516872
 C          3.6387803766        2.5017173628        1.3905179330
 H          3.2947685384        3.4459927814        1.7852295949
 C          4.8945210213        2.0400752905        1.6991657182
 H          5.5436454919        2.6191862803        2.3387343455
 C          2.8627237304       -1.4687729702       -1.3294825109
 H          2.2474811152       -2.0680106449       -1.9820342383
 C          4.1198386240       -1.9205773650       -1.0168107557
 H          4.4696500399       -2.8585826673       -1.4214455723
 C          8.5096338707       -1.3687797506        1.3605444157
 C          8.5925357450       -1.5010569731        2.8893111122
 H          8.4272278367       -0.5511003337        3.3899661732
 H          9.5793536324       -1.8585698406        3.1689438384
 H          7.8550562590       -2.2143741760        3.2510830454
 C          9.5254368843       -0.3248144863        0.8711482365
 H         10.5311286447       -0.6573442457        1.1116725006
 H          9.3719916821        0.6432194526        1.3400152142
 H          9.4549274085       -0.2002686666       -0.2072549108
 C          8.8615009617       -2.7201355229        0.7364490527
 H          8.1827709976       -3.5008065703        1.0730609435
 H          9.8650999333       -3.0042629984        1.0407042827
 H          8.8498083041       -2.6701426425       -0.3500956643
 C          0.1671992386       -0.5181089040       -2.0577104501
 H          0.0711081080       -1.5431831524       -1.6865780326
 H          0.6656051033       -0.5774979676       -3.0312572541
 H         -0.6851576151        0.8663706984       -4.1754998043
 C         -1.4755899583        0.7332225184       -3.4518253877
 C         -3.5357176834        0.3820433049       -1.5991324969
 C         -2.7325610148        1.2243547729       -3.7349746827
 C         -1.2015979484        0.0588648962       -2.2644804384
 C         -2.2357659925       -0.1058661346       -1.3019547792
 C         -3.7947916633        1.0486810853       -2.8245181959
 C         -4.5894437373        0.2009350971       -0.6760518864
 C         -6.7175384430       -0.1913300976        1.1801537452
 C         -5.8938271383        0.6674977051       -0.9729804033
 C         -4.3611937191       -0.4542211133        0.5568591396
 C         -5.4322534675       -0.6358747949        1.4601853515
 C         -6.9275683080        0.4582699848       -0.0371110248
 H         -5.2198616979       -1.1410004631        2.3887556351
 H         -7.9122280566        0.8204556994       -0.2913159410
 C         -2.0316938392       -0.7409959084       -0.0527607459
 H         -1.0475128340       -1.0980883244        0.2082202832
 C         -3.0557776654       -0.9079047955        0.8439537242
 H         -2.8704897933       -1.3991437243        1.7875795830
 C         -5.0998903004        1.5132808022       -3.0996089646
 H         -5.2843904994        2.0187031448       -4.0357214741
 C         -6.1227183183        1.3258780893       -2.2019176943
 H         -7.1162896492        1.6818358040       -2.4297729883
 C         -7.8827942637       -0.3845378988        2.1317568928
 C         -8.9620384863       -1.2167318557        1.4217778716
 H         -8.5628661276       -2.1835992153        1.1229276995
 H         -9.3471913203       -0.7155631600        0.5381624974
 H         -9.7939383170       -1.3850473491        2.0996402112
 C         -8.4495605564        0.9938277028        2.5059870969
 H         -9.2682460082        0.8699407110        3.2090170357
 H         -8.8315691325        1.5263736974        1.6395946828
 H         -7.6836383671        1.6061663470        2.9771706547
 C         -7.4761989934       -1.1085867128        3.4162170866
 H         -7.0958935041       -2.1057658743        3.2057620301
 H         -8.3476145240       -1.2180568029        4.0558350868
 H         -6.7301095294       -0.5435945672        3.9708388669
 H         -2.9166120193        1.7382425085       -4.6662124045
77
  -105.32638335
 H         -0.3809568191        1.0156808726       -1.5390662305
 C          0.6122560633        0.7342251527       -1.2234521283
 C          3.2003343532        0.0253872747       -0.4459995523
 C          1.0420656963        1.0717204970        0.0569135389
 C          1.4260206394        0.0562035775       -2.1057594932
 C          2.7352047866       -0.3159209649       -1.7417780984
 C          2.3593012194        0.7179968801        0.4652256681
 H          1.0648917704       -0.1902325130       -3.0927766306
 C          4.5168988695       -0.3255066633       -0.0726011487
 C          7.1804937435       -1.0134717904        0.6792644845
 C          5.0160710097        0.0089741105        1.2082384925
 C          5.3622225343       -1.0133826527       -0.9778651091
 C          6.6735913507       -1.3431976391       -0.5780811838
 C          6.3396015282       -0.3415213867        1.5570418861
 H          7.2941471688       -1.8693413475       -1.2877025550
 H          6.6847932054       -0.0666527678        2.5408519228
 C          3.5911926265       -1.0053406243       -2.6290963234
 H          3.2235448205       -1.2601667832       -3.6117856323
 C          4.8686796675       -1.3461470109       -2.2592023607
 H          5.5118629663       -1.8712822629       -2.9493515511
 C          2.8835860469        1.0328776549        1.7426455053
 H          2.2703072710        1.5571632440        2.4585028429
 C          4.1638231375        0.6932783781        2.1006760628
 H          4.5341319218        0.9530055549        3.0811779481
 C          8.6047845729       -1.3975392966        1.0322172852
 C          9.5579724149       -0.7471446424        0.0175983254
 H         10.5842882258       -0.9902090477        0.2773049215
 H          9.4489193566        0.3351601110        0.0310244351
 H          9.3779569884       -1.0986270158       -0.9945389777
 C          8.7317936425       -2.9274731702        0.9608194245
 H          9.7426100528       -3.2200455830        1.2299955485
 H          8.5280064145       -3.3060286011       -0.0370270904
 H          8.0418341499       -3.4003824396        1.6564009728
 C          9.0046130101       -0.9406388341        2.4360262470
 H         10.0322282022       -1.2359059641        2.6293211944
 H          8.3812051862       -1.4045718653        3.1971837721
 H          8.9504947304        0.1417567191        2.5301060706
 C          0.1436740148        1.8296694461        0.9973187061
 H          0.6485672218        2.7662418088        1.2556226740
 H          0.0388893472        1.2584088275        1.9253455464
 H         -0.6667652672        4.1887842396        0.0572486784
 C         -1.4665094842        3.4636008347        0.0309113914
 C         -3.5491511578        1.6043372032       -0.0345252209
 C         -2.7093917145        3.8541772377       -0.4205578503
 C         -1.2177056766        2.1634509423        0.4638132256
 C         -2.2655572598        1.2024425520        0.4210500631
 C         -3.7815808534        2.9392849934       -0.4552301242
 C         -4.6122572850        0.6749005280       -0.0709101652
 C         -6.7547744699       -1.2049915273       -0.1381882953
 C         -5.8983703010        1.0702743154       -0.5146109762
 C         -4.4110089972       -0.6649078501        0.3364048544
 C         -5.4891043465       -1.5772122579        0.2949094097
 C         -6.9394752600        0.1196162005       -0.5369515408
 H         -5.2977485753       -2.5886815139        0.6155908017
 H         -7.9092144671        0.4490263330       -0.8781798449
 C         -2.0901070352       -0.1473438076        0.8123943605
 H         -1.1205032267       -0.4831943602        1.1458374525
 C         -3.1238300585       -1.0476245754        0.7712150241
 H         -2.9598994886       -2.0698313209        1.0782777376
 C         -5.0703457978        3.3146684028       -0.8945434003
 H         -5.2349143476        4.3343874374       -1.2089873645
 C         -6.1015567715        2.4076042943       -0.9224694282
 H         -7.0817616449        2.7108325194       -1.2586935397
 C         -7.9238419871       -2.1696243704       -0.1964706928
 C         -8.4058641011       -2.2668225488       -1.6525223083
 H         -7.6037946479       -2.6202759490       -2.2970712085
 H         -8.7545996906       -1.3097761173       -2.0304168914
 H         -9.2302023482       -2.9713629795       -1.7150221166
 C         -9.0552921633       -1.6302775231        0.6921818215
 H         -9.8875805851       -2.3281916384        0.6818578163
 H         -9.4227106116       -0.6682854111        0.3461749350
 H         -8.7140229860       -1.5198739898        1.7191935652
 C         -7.5510107446       -3.5716789069        0.2878675483
 H         -6.7738429348       -4.0125103129       -0.3327262706
 H         -8.4243950597       -4.2149788933        0.2261750336
 H         -7.2249398414       -3.5585639054        1.3255601359
 H         -2.8736416736        4.8706547487       -0.7445004673
