40
modified coordinates (angle = 0 degrees)
C	-0.365283	-2.536374	8.977615
C	0.449705	-3.635523	8.977615
C	1.769922	-3.469262	8.977615
C	2.262862	-2.192129	8.977615
C	1.452288	-1.087287	8.977615
C	0.113327	-1.23409	8.977615
C	-0.676538	1.177708	8.977615
C	0.007342	3.57384	8.977615
C	-1.266586	3.678856	8.977615
S	0.739295	2.00942	8.977615
S	-2.052173	2.238075	8.977615
C	-0.806364	-0.148739	8.977615
H	-1.394251	-2.671757	8.977615
H	0.057489	-4.625821	8.977615
H	2.408035	-4.32817	8.977615
H	3.28788	-2.059055	8.977615
H	1.859371	-0.106768	8.977615
H	0.617461	4.381141	8.977615
H	-1.843107	4.585343	8.977615
H	-1.789203	-0.44358	8.977615
C	-0.365283	-2.536374	14.95523
C	0.449705	-3.635523	14.95523
C	1.769922	-3.469262	14.95523
C	2.262862	-2.192129	14.95523
C	1.452288	-1.087287	14.95523
C	0.113327	-1.23409	14.95523
C	-0.676538	1.177708	14.95523
C	0.007342	3.57384	14.95523
C	-1.266586	3.678856	14.95523
S	0.739295	2.00942	14.95523
S	-2.052173	2.238075	14.95523
C	-0.806364	-0.148739	14.95523
H	-1.394251	-2.671757	14.95523
H	0.057489	-4.625821	14.95523
H	2.408035	-4.32817	14.95523
H	3.28788	-2.059055	14.95523
H	1.859371	-0.106768	14.95523
H	0.617461	4.381141	14.95523
H	-1.843107	4.585343	14.95523
H	-1.789203	-0.44358	14.95523
