40
modified coordinates (angle = 0 degrees)
C	-0.365283	-2.536374	9.477615
C	0.449705	-3.635523	9.477615
C	1.769922	-3.469262	9.477615
C	2.262862	-2.192129	9.477615
C	1.452288	-1.087287	9.477615
C	0.113327	-1.23409	9.477615
C	-0.676538	1.177708	9.477615
C	0.007342	3.57384	9.477615
C	-1.266586	3.678856	9.477615
S	0.739295	2.00942	9.477615
S	-2.052173	2.238075	9.477615
C	-0.806364	-0.148739	9.477615
H	-1.394251	-2.671757	9.477615
H	0.057489	-4.625821	9.477615
H	2.408035	-4.32817	9.477615
H	3.28788	-2.059055	9.477615
H	1.859371	-0.106768	9.477615
H	0.617461	4.381141	9.477615
H	-1.843107	4.585343	9.477615
H	-1.789203	-0.44358	9.477615
C	-0.365283	-2.536374	15.45523
C	0.449705	-3.635523	15.45523
C	1.769922	-3.469262	15.45523
C	2.262862	-2.192129	15.45523
C	1.452288	-1.087287	15.45523
C	0.113327	-1.23409	15.45523
C	-0.676538	1.177708	15.45523
C	0.007342	3.57384	15.45523
C	-1.266586	3.678856	15.45523
S	0.739295	2.00942	15.45523
S	-2.052173	2.238075	15.45523
C	-0.806364	-0.148739	15.45523
H	-1.394251	-2.671757	15.45523
H	0.057489	-4.625821	15.45523
H	2.408035	-4.32817	15.45523
H	3.28788	-2.059055	15.45523
H	1.859371	-0.106768	15.45523
H	0.617461	4.381141	15.45523
H	-1.843107	4.585343	15.45523
H	-1.789203	-0.44358	15.45523
