47
 00
 C                  1.39841400    1.30601200    1.40902300
 C                  0.53554400   -1.20167500    2.43239100
 C                  1.97124800    0.05061800    0.82341700
 C                  0.49174100    1.22621200    2.48163000
 C                 -0.01745000    0.01627200    2.91584400
 C                  1.43467200   -1.22902000    1.39864100
 H                  0.03095000    2.15308500    2.83500200
 H                  0.11595500   -2.14628800    2.79185300
 C                  1.97124800    0.05061800   -0.82341700
 C                 -0.01745000    0.01627200   -2.91584400
 C                  1.39841400    1.30601200   -1.40902300
 C                  1.43467200   -1.22902000   -1.39864100
 C                  0.53554400   -1.20167500   -2.43239100
 C                  0.49174100    1.22621200   -2.48163000
 H                  0.11595500   -2.14628800   -2.79185300
 H                  0.03095000    2.15308500   -2.83500200
 C                  1.52635800    2.50330800    0.70050700
 H                  1.30228800    3.44146900    1.21460900
 C                  1.52635800    2.50330800   -0.70050700
 H                  1.30228800    3.44146900   -1.21460900
 C                  1.69904500   -2.44653300    0.68342000
 H                  1.66770600   -3.39520700    1.22491600
 C                  1.69904500   -2.44653300   -0.68342000
 H                  1.66770600   -3.39520700   -1.22491600
 C                 -1.36027500   -0.03252800    3.58826800
 H                 -1.36618500   -0.75937600    4.41676800
 H                 -1.60015900    0.95358400    4.01532200
 C                 -2.45579700   -0.43840900    2.57404500
 H                 -2.29259800   -1.49120900    2.28967500
 H                 -3.41861800   -0.41983900    3.10787600
 C                 -1.36027500   -0.03252800   -3.58826800
 H                 -1.36618500   -0.75937600   -4.41676800
 H                 -1.60015900    0.95358400   -4.01532200
 C                 -2.45579700   -0.43840900   -2.57404500
 H                 -3.41861800   -0.41983900   -3.10787600
 H                 -2.29259800   -1.49120900   -2.28967500
 C                 -2.57214200    0.41386900   -1.28668500
 H                 -2.10483300    1.40183400   -1.44045500
 H                 -3.64159700    0.61525700   -1.11251800
 C                 -2.01544600   -0.22608100    0.00000000
 H                 -0.91052900   -0.19776100    0.00000000
 H                 -2.29009400   -1.29594200    0.00000000
 C                 -2.57214200    0.41386900    1.28668500
 H                 -3.64159700    0.61525700    1.11251800
 H                 -2.10483300    1.40183400    1.44045500
 H                  3.04560000    0.06302000    1.04576600
 H                  3.04560000    0.06302000   -1.04576600