40
modified coordinates (angle = 10 degrees)
C -0.365283 -2.536374 7.977615
C 0.449705 -3.635523 7.977615
C 1.769922 -3.469262 7.977615
C 2.262862 -2.192129 7.977615
C 1.452288 -1.087287 7.977615
C 0.113327 -1.234090 7.977615
C -0.676538 1.177708 7.977615
C 0.007342 3.573840 7.977615
C -1.266586 3.678856 7.977615
S 0.739295 2.009420 7.977615
S -2.052173 2.238075 7.977615
C -0.806364 -0.148739 7.977615
H -1.394251 -2.671757 7.977615
H 0.057489 -4.625821 7.977615
H 2.408035 -4.328170 7.977615
H 3.287880 -2.059055 7.977615
H 1.859371 -0.106768 7.977615
H 0.617461 4.381141 7.977615
H -1.843107 4.585343 7.977615
H -1.789203 -0.443580 7.977615
C 0.078011 -2.530504 13.955230
C 1.071483 -3.471433 13.955230
C 2.342772 -3.078445 13.955230
C 2.606451 -1.735116 13.955230
C 1.616338 -0.787814 13.955230
C 0.323211 -1.164895 13.955230
C -0.873459 1.073104 13.955230
C -0.616052 3.551588 13.955230
C -1.888862 3.433793 13.955230
S 0.376440 2.138037 13.955230
S -2.412325 1.878485 13.955230
C -0.770977 -0.255736 13.955230
H -0.911815 -2.842509 13.955230
H 0.857189 -4.514794 13.955230
H 3.120339 -3.813497 13.955230
H 3.592789 -1.426072 13.955230
H 1.846971 0.248498 13.955230
H -0.155389 4.452570 13.955230
H -2.614034 4.226396 13.955230
H -1.687686 -0.716766 13.955230
