40
modified coordinates (angle = 30 degrees)
C -0.365283 -2.536374 7.977615
C 0.449705 -3.635523 7.977615
C 1.769922 -3.469262 7.977615
C 2.262862 -2.192129 7.977615
C 1.452288 -1.087287 7.977615
C 0.113327 -1.234090 7.977615
C -0.676538 1.177708 7.977615
C 0.007342 3.573840 7.977615
C -1.266586 3.678856 7.977615
S 0.739295 2.009420 7.977615
S -2.052173 2.238075 7.977615
C -0.806364 -0.148739 7.977615
H -1.394251 -2.671757 7.977615
H 0.057489 -4.625821 7.977615
H 2.408035 -4.328170 7.977615
H 3.287880 -2.059055 7.977615
H 1.859371 -0.106768 7.977615
H 0.617461 4.381141 7.977615
H -1.843107 4.585343 7.977615
H -1.789203 -0.443580 7.977615
C 0.928105 -2.290615 13.955230
C 2.183480 -2.835012 13.955230
C 3.243691 -2.030917 13.955230
C 3.032023 -0.678417 13.955230
C 1.777624 -0.126883 13.955230
C 0.691451 -0.923499 13.955230
C -1.198491 0.770247 13.955230
C -1.804300 3.187298 13.955230
C -2.960062 2.641281 13.955230
S -0.388200 2.198447 13.955230
S -2.920009 1.000734 13.955230
C -0.647700 -0.443403 13.955230
H 0.104684 -2.922344 13.955230
H 2.338960 -3.888743 13.955230
H 4.225767 -2.455697 13.955230
H 3.853177 -0.050663 13.955230
H 1.639909 0.925813 13.955230
H -1.679571 4.191501 13.955230
H -3.912587 3.138061 13.955230
H -1.351443 -1.190162 13.955230
