40
modified coordinates (angle = 60 degrees)
C -0.365283 -2.536374 7.977615
C 0.449705 -3.635523 7.977615
C 1.769922 -3.469262 7.977615
C 2.262862 -2.192129 7.977615
C 1.452288 -1.087287 7.977615
C 0.113327 -1.234090 7.977615
C -0.676538 1.177708 7.977615
C 0.007342 3.573840 7.977615
C -1.266586 3.678856 7.977615
S 0.739295 2.009420 7.977615
S -2.052173 2.238075 7.977615
C -0.806364 -0.148739 7.977615
H -1.394251 -2.671757 7.977615
H 0.057489 -4.625821 7.977615
H 2.408035 -4.328170 7.977615
H 3.287880 -2.059055 7.977615
H 1.859371 -0.106768 7.977615
H 0.617461 4.381141 7.977615
H -1.843107 4.585343 7.977615
H -1.789203 -0.443580 7.977615
C 1.925332 -1.431087 13.955230
C 3.284717 -1.274862 13.955230
C 3.800839 -0.048390 13.955230
C 2.941279 1.017075 13.955230
C 1.579171 0.867519 13.955230
C 1.036826 -0.365457 13.955230
C -1.446785 0.156399 13.955230
C -3.179956 1.946722 13.955230
C -3.907867 0.895976 13.955230
S -1.459152 1.798402 13.955230
S -3.052907 -0.504752 13.955230
C -0.362961 -0.619257 13.955230
H 1.528093 -2.389891 13.955230
H 3.946232 -2.109680 13.955230
H 4.863732 0.074778 13.955230
H 3.338543 1.971304 13.955230
H 0.933558 1.710322 13.955230
H -3.574040 2.878751 13.955230
H -4.981168 0.849938 13.955230
H -0.599041 -1.617841 13.955230
