40
modified coordinates (angle = 70 degrees)
C -0.365283 -2.536374 7.977615
C 0.449705 -3.635523 7.977615
C 1.769922 -3.469262 7.977615
C 2.262862 -2.192129 7.977615
C 1.452288 -1.087287 7.977615
C 0.113327 -1.234090 7.977615
C -0.676538 1.177708 7.977615
C 0.007342 3.573840 7.977615
C -1.266586 3.678856 7.977615
S 0.739295 2.009420 7.977615
S -2.052173 2.238075 7.977615
C -0.806364 -0.148739 7.977615
H -1.394251 -2.671757 7.977615
H 0.057489 -4.625821 7.977615
H 2.408035 -4.328170 7.977615
H 3.287880 -2.059055 7.977615
H 1.859371 -0.106768 7.977615
H 0.617461 4.381141 7.977615
H -1.843107 4.585343 7.977615
H -1.789203 -0.443580 7.977615
C 2.141896 -1.044248 13.955230
C 3.453500 -0.654341 13.955230
C 3.748807 0.643122 13.955230
C 2.717290 1.543139 13.955230
C 1.401845 1.159327 13.955230
C 1.081843 -0.149095 13.955230
C -1.454655 -0.066441 13.955230
C -3.472382 1.395721 13.955230
C -4.006774 0.234538 13.955230
S -1.751965 1.548469 13.955230
S -2.921569 -0.996449 13.955230
C -0.252606 -0.642110 13.955230
H 1.917186 -2.057466 13.955230
H 4.249930 -1.361606 13.955230
H 4.774164 0.948988 13.955230
H 2.942818 2.551855 13.955230
H 0.619689 1.877217 13.955230
H -4.022324 2.245158 13.955230
H -5.055775 0.002822 13.955230
H -0.311697 -1.666518 13.955230
