40
modified coordinates (angle = 100 degrees)
C -0.365283 -2.536374 7.977615
C 0.449705 -3.635523 7.977615
C 1.769922 -3.469262 7.977615
C 2.262862 -2.192129 7.977615
C 1.452288 -1.087287 7.977615
C 0.113327 -1.234090 7.977615
C -0.676538 1.177708 7.977615
C 0.007342 3.573840 7.977615
C -1.266586 3.678856 7.977615
S 0.739295 2.009420 7.977615
S -2.052173 2.238075 7.977615
C -0.806364 -0.148739 7.977615
H -1.394251 -2.671757 7.977615
H 0.057489 -4.625821 7.977615
H 2.408035 -4.328170 7.977615
H 3.287880 -2.059055 7.977615
H 1.859371 -0.106768 7.977615
H 0.617461 4.381141 7.977615
H -1.843107 4.585343 7.977615
H -1.789203 -0.443580 7.977615
C 2.353322 0.255193 13.955230
C 3.294252 1.248665 13.955230
C 2.901263 2.519954 13.955230
C 1.557935 2.783633 13.955230
C 0.610632 1.793520 13.955230
C 0.987713 0.500393 13.955230
C -1.250286 -0.696277 13.955230
C -3.728769 -0.438870 13.955230
C -3.610975 -1.711680 13.955230
S -2.315219 0.553621 13.955230
S -2.055667 -2.235143 13.955230
C 0.078554 -0.593795 13.955230
H 2.665327 -0.734633 13.955230
H 4.337612 1.034371 13.955230
H 3.636315 3.297520 13.955230
H 1.248890 3.769971 13.955230
H -0.425680 2.024153 13.955230
H -4.629752 0.021793 13.955230
H -4.403578 -2.436852 13.955230
H 0.539584 -1.510504 13.955230
