40
modified coordinates (angle = 110 degrees)
C -0.365283 -2.536374 7.977615
C 0.449705 -3.635523 7.977615
C 1.769922 -3.469262 7.977615
C 2.262862 -2.192129 7.977615
C 1.452288 -1.087287 7.977615
C 0.113327 -1.234090 7.977615
C -0.676538 1.177708 7.977615
C 0.007342 3.573840 7.977615
C -1.266586 3.678856 7.977615
S 0.739295 2.009420 7.977615
S -2.052173 2.238075 7.977615
C -0.806364 -0.148739 7.977615
H -1.394251 -2.671757 7.977615
H 0.057489 -4.625821 7.977615
H 2.408035 -4.328170 7.977615
H 3.287880 -2.059055 7.977615
H 1.859371 -0.106768 7.977615
H 0.617461 4.381141 7.977615
H -1.843107 4.585343 7.977615
H -1.789203 -0.443580 7.977615
C 2.270564 0.690734 13.955230
C 3.024684 1.832503 13.955230
C 2.416909 3.016237 13.955230
C 1.048201 3.042643 13.955230
C 0.287222 1.903075 13.955230
C 0.883124 0.695073 13.955230
C -1.113075 -0.872041 13.955230
C -3.598604 -1.048930 13.955230
C -3.261577 -2.281948 13.955230
S -2.378873 0.173944 13.955230
S -1.639000 -2.527382 13.955230
C 0.177780 -0.540366 13.955230
H 2.749711 -0.229876 13.955230
H 4.089406 1.802642 13.955230
H 3.005771 3.909630 13.955230
H 0.572576 3.960331 13.955230
H -0.773395 1.950250 13.955230
H -4.565892 -0.751718 13.955230
H -3.916215 -3.133737 13.955230
H 0.790991 -1.363091 13.955230
