40
modified coordinates (angle = 140 degrees)
C -0.365283 -2.536374 7.977615
C 0.449705 -3.635523 7.977615
C 1.769922 -3.469262 7.977615
C 2.262862 -2.192129 7.977615
C 1.452288 -1.087287 7.977615
C 0.113327 -1.234090 7.977615
C -0.676538 1.177708 7.977615
C 0.007342 3.573840 7.977615
C -1.266586 3.678856 7.977615
S 0.739295 2.009420 7.977615
S -2.052173 2.238075 7.977615
C -0.806364 -0.148739 7.977615
H -1.394251 -2.671757 7.977615
H 0.057489 -4.625821 7.977615
H 2.408035 -4.328170 7.977615
H 3.287880 -2.059055 7.977615
H 1.859371 -0.106768 7.977615
H 0.617461 4.381141 7.977615
H -1.843107 4.585343 7.977615
H -1.789203 -0.443580 7.977615
C 1.597262 1.822066 13.955230
C 1.679464 3.187927 13.955230
C 0.561249 3.909183 13.955230
C -0.637290 3.247698 13.955230
C -0.726534 1.880313 13.955230
C 0.393533 1.132103 13.955230
C -0.551669 -1.223157 13.955230
C -2.615755 -2.619111 13.955230
C -1.707373 -3.518423 13.955230
S -2.170874 -0.950205 13.955230
S -0.179462 -2.919686 13.955230
C 0.400407 -0.290490 13.955230
H 2.472520 1.264368 13.955230
H 2.616470 3.694428 13.955230
H 0.624521 4.977316 13.955230
H -1.508038 3.804626 13.955230
H -1.668643 1.390860 13.955230
H -3.602057 -2.845362 13.955230
H -1.848411 -4.583413 13.955230
H 1.342826 -0.696385 13.955230
