40
modified coordinates (angle = 150 degrees)
C -0.365283 -2.536374 7.977615
C 0.449705 -3.635523 7.977615
C 1.769922 -3.469262 7.977615
C 2.262862 -2.192129 7.977615
C 1.452288 -1.087287 7.977615
C 0.113327 -1.234090 7.977615
C -0.676538 1.177708 7.977615
C 0.007342 3.573840 7.977615
C -1.266586 3.678856 7.977615
S 0.739295 2.009420 7.977615
S -2.052173 2.238075 7.977615
C -0.806364 -0.148739 7.977615
H -1.394251 -2.671757 7.977615
H 0.057489 -4.625821 7.977615
H 2.408035 -4.328170 7.977615
H 3.287880 -2.059055 7.977615
H 1.859371 -0.106768 7.977615
H 0.617461 4.381141 7.977615
H -1.843107 4.585343 7.977615
H -1.789203 -0.443580 7.977615
C 1.253906 2.102514 13.955230
C 1.097680 3.461899 13.955230
C -0.128792 3.978021 13.955230
C -1.194257 3.118461 13.955230
C -1.044701 1.756353 13.955230
C 0.188275 1.214008 13.955230
C -0.333581 -1.269603 13.955230
C -2.123904 -3.002774 13.955230
C -1.073158 -3.730685 13.955230
S -1.975584 -1.281970 13.955230
S 0.327571 -2.875725 13.955230
C 0.442075 -0.185779 13.955230
H 2.212710 1.705275 13.955230
H 1.932498 4.123414 13.955230
H -0.251960 5.040914 13.955230
H -2.148486 3.515725 13.955230
H -1.887504 1.110740 13.955230
H -3.055933 -3.396858 13.955230
H -1.027120 -4.803986 13.955230
H 1.440659 -0.421859 13.955230
