40
modified coordinates (angle = 180 degrees)
C -0.365283 -2.536374 7.977615
C 0.449705 -3.635523 7.977615
C 1.769922 -3.469262 7.977615
C 2.262862 -2.192129 7.977615
C 1.452288 -1.087287 7.977615
C 0.113327 -1.234090 7.977615
C -0.676538 1.177708 7.977615
C 0.007342 3.573840 7.977615
C -1.266586 3.678856 7.977615
S 0.739295 2.009420 7.977615
S -2.052173 2.238075 7.977615
C -0.806364 -0.148739 7.977615
H -1.394251 -2.671757 7.977615
H 0.057489 -4.625821 7.977615
H 2.408035 -4.328170 7.977615
H 3.287880 -2.059055 7.977615
H 1.859371 -0.106768 7.977615
H 0.617461 4.381141 7.977615
H -1.843107 4.585343 7.977615
H -1.789203 -0.443580 7.977615
C 0.010919 2.536374 13.955230
C -0.804069 3.635523 13.955230
C -2.124286 3.469262 13.955230
C -2.617226 2.192129 13.955230
C -1.806652 1.087287 13.955230
C -0.467691 1.234090 13.955230
C 0.322174 -1.177708 13.955230
C -0.361706 -3.573840 13.955230
C 0.912222 -3.678856 13.955230
S -1.093659 -2.009420 13.955230
S 1.697809 -2.238075 13.955230
C 0.452000 0.148739 13.955230
H 1.039887 2.671757 13.955230
H -0.411853 4.625821 13.955230
H -2.762399 4.328170 13.955230
H -3.642244 2.059055 13.955230
H -2.213735 0.106768 13.955230
H -0.971825 -4.381141 13.955230
H 1.488743 -4.585343 13.955230
H 1.434839 0.443580 13.955230
