%nprocshared=32
%mem=32GB
%chk=oniom.chk
#p oniom(M062X/Def2SVP:PM6) empiricaldispersion=gd3 SCF=QC opt fchk

1

0 1 0 2 0 2
C	-1	0.449705	-3.635523	7.977615	M
C	-1	1.769922	-3.469262	7.977615	M
C	-1	2.262862	-2.192129	7.977615	M
C	-1	1.452288	-1.087287	7.977615	M
C	-1	0.113327	-1.23409	7.977615	M
C	-1	-0.676538	1.177708	7.977615	H
C	-1	0.007342	3.57384	7.977615	H
C	-1	-1.266586	3.678856	7.977615	H
S	-1	0.739295	2.00942	7.977615	H
S	-1	-2.052173	2.238075	7.977615	H
C	-1	-0.806364	-0.148739	7.977615	H
C	-1	0.449705	-3.635523	7.977615	H
C	-1	1.769922	-3.469262	7.977615	H
C	-1	2.262862	-2.192129	7.977615	H
C	-1	1.452288	-1.087287	7.977615	H
C	-1	0.113327	-1.23409	7.977615	H
C	-1	-0.676538	1.177708	7.977615	M
C	-1	0.007342	3.57384	7.977615	M
C	-1	-1.266586	3.678856	7.977615	M
S	-1	0.739295	2.00942	7.977615	M
S	0	-2.052173	2.238075	7.977615	M
C	0	-0.806364	-0.148739	7.977615	M
