40
modified coordinates (angle = 180 degrees)
C	0.634717	-2.536374	7.977615	
C	1.449705	-3.635523	7.977615	
C	2.769922	-3.469262	7.977615	
C	3.262862	-2.192129	7.977615	
C	2.4522880000000002	-1.087287	7.977615	
C	1.113327	-1.23409	7.977615	
C	0.323462	1.177708	7.977615	
C	1.007342	3.57384	7.977615	
C	-0.266586	3.678856	7.977615	
S	1.739295	2.00942	7.977615	
S	-1.0521729999999998	2.238075	7.977615	
C	0.19363600000000003	-0.148739	7.977615	
H	-0.3942509999999999	-2.671757	7.977615	
H	1.057489	-4.625821	7.977615	
H	3.408035	-4.32817	7.977615	
H	4.2878799999999995	-2.059055	7.977615	
H	2.8593710000000003	-0.106768	7.977615	
H	1.617461	4.381141	7.977615	
H	-0.843107	4.585343	7.977615	
H	-0.7892030000000001	-0.44358	7.977615	
C	1.010919	2.536374	13.95523	
C	0.19593099999999997	3.635523	13.95523	
C	-1.1242860000000001	3.469262	13.95523	
C	-1.617226	2.192129	13.95523	
C	-0.8066519999999999	1.087287	13.95523	
C	0.5323089999999999	1.23409	13.95523	
C	1.322174	-1.177708	13.95523	
C	0.6382939999999999	-3.57384	13.95523	
C	1.9122219999999999	-3.678856	13.95523	
S	-0.09365899999999994	-2.00942	13.95523	
S	2.697809	-2.238075	13.95523	
C	1.452	0.148739	13.95523	
H	2.0398870000000002	2.671757	13.95523	
H	0.588147	4.625821	13.95523	
H	-1.7623989999999998	4.32817	13.95523	
H	-2.642244	2.059055	13.95523	
H	-1.2137349999999998	0.106768	13.95523	
H	0.02817499999999995	-4.381141	13.95523	
H	2.488743	-4.585343	13.95523	
H	2.434839	0.44358	13.95523	
