40
rotated
C        4.6724631372     -5.4012299334      7.4238958280                 
C        5.3782634492     -6.2947209820      6.6650456254                 
C        6.5216049101     -5.9127163439      6.1016111506                 
C        6.9485034728     -4.6283061833      6.3068103218                 
C        6.2465257969     -3.7287106261      7.0655337434                 
C        5.0869515558     -4.0956361380      7.6444300454                 
C        4.4029084000     -1.9643622243      8.8404286978                 
C        4.9951658533      0.4042157025      9.3386356125                 
C        3.8919118424      0.2850439446      9.9731035698                 
S        5.6290557459     -0.9406868928      8.4596670443                 
S        3.2115735433     -1.2031906183      9.8494325993                 
C        4.2904757859     -3.2330162357      8.4477553722                 
H        3.7813507092     -5.7044122306      7.8610489328                 
H        5.0385944293     -7.2923695913      6.5106250022                 
H        7.0742269788     -6.6107021039      5.5080322752                 
H        7.8361951004     -4.3279691262      5.8707233853                 
H        6.5990700164     -2.7377088643      7.2096245465                 
H        5.5235444069      1.2671669887      9.3280866551                 
H        3.3926300104      1.0382721922     10.5540166476                 
H        3.4393122438     -3.6781515152      8.8086970887                 
C        6.6612706351     -6.5793920682     10.6608696939                 
C        7.3670709471     -7.4728831168      9.9020194913                 
C        8.5104124080     -7.0908784787      9.3385850165                 
C        8.9373109707     -5.8064683181      9.5437841876                 
C        8.2353332948     -4.9068727610     10.3025076093                 
C        7.0757590537     -5.2737982729     10.8814039113                 
C        6.3917158979     -3.1425243591     12.0774025636                 
C        6.9839733513     -0.7739464324     12.5756094783                 
C        5.8807193403     -0.8931181902     13.2100774356                 
S        7.6178632439     -2.1188490277     11.6966409102                 
S        5.2003810412     -2.3813527531     13.0864064652                 
C        6.2792832838     -4.4111783705     11.6847292381                 
H        5.7701582071     -6.8825743654     11.0980227987                 
H        7.0274019272     -8.4705317261      9.7475988681                 
H        9.0630344767     -7.7888642387      8.7450061411                 
H        9.8250025983     -5.5061312610      9.1076972512                 
H        8.5878775144     -3.9158709991     10.4465984124                 
H        7.5123519048      0.0890048539     12.5650605210                 
H        5.3814375083     -0.1398899426     13.7909905134                 
H        5.4281197417     -4.8563136500     12.0456709546 