40
modified coordinates (angle = 180 degrees)
C	1.634717	-2.536374	7.977615	
C	2.449705	-3.635523	7.977615	
C	3.769922	-3.469262	7.977615	
C	4.262862	-2.192129	7.977615	
C	3.4522880000000002	-1.087287	7.977615	
C	2.113327	-1.23409	7.977615	
C	1.3234620000000001	1.177708	7.977615	
C	2.007342	3.57384	7.977615	
C	0.733414	3.678856	7.977615	
S	2.7392950000000003	2.00942	7.977615	
S	-0.0521729999999998	2.238075	7.977615	
C	1.1936360000000001	-0.148739	7.977615	
H	0.6057490000000001	-2.671757	7.977615	
H	2.057489	-4.625821	7.977615	
H	4.408035	-4.32817	7.977615	
H	5.2878799999999995	-2.059055	7.977615	
H	3.8593710000000003	-0.106768	7.977615	
H	2.617461	4.381141	7.977615	
H	0.15689299999999995	4.585343	7.977615	
H	0.2107969999999999	-0.44358	7.977615	
C	2.010919	2.536374	13.95523	
C	1.1959309999999999	3.635523	13.95523	
C	-0.12428600000000012	3.469262	13.95523	
C	-0.617226	2.192129	13.95523	
C	0.19334800000000008	1.087287	13.95523	
C	1.532309	1.23409	13.95523	
C	2.322174	-1.177708	13.95523	
C	1.638294	-3.57384	13.95523	
C	2.912222	-3.678856	13.95523	
S	0.9063410000000001	-2.00942	13.95523	
S	3.697809	-2.238075	13.95523	
C	2.452	0.148739	13.95523	
H	3.0398870000000002	2.671757	13.95523	
H	1.588147	4.625821	13.95523	
H	-0.7623989999999998	4.32817	13.95523	
H	-1.6422439999999998	2.059055	13.95523	
H	-0.2137349999999998	0.106768	13.95523	
H	1.028175	-4.381141	13.95523	
H	3.488743	-4.585343	13.95523	
H	3.434839	0.44358	13.95523	
