40
modified coordinates (angle = 180 degrees)
C	2.634717	-2.536374	7.977615	
C	3.449705	-3.635523	7.977615	
C	4.769922	-3.469262	7.977615	
C	5.262862	-2.192129	7.977615	
C	4.452288	-1.087287	7.977615	
C	3.113327	-1.23409	7.977615	
C	2.323462	1.177708	7.977615	
C	3.007342	3.57384	7.977615	
C	1.733414	3.678856	7.977615	
S	3.7392950000000003	2.00942	7.977615	
S	0.9478270000000002	2.238075	7.977615	
C	2.193636	-0.148739	7.977615	
H	1.605749	-2.671757	7.977615	
H	3.057489	-4.625821	7.977615	
H	5.408035	-4.32817	7.977615	
H	6.2878799999999995	-2.059055	7.977615	
H	4.859371	-0.106768	7.977615	
H	3.617461	4.381141	7.977615	
H	1.156893	4.585343	7.977615	
H	1.210797	-0.44358	7.977615	
C	3.010919	2.536374	13.95523	
C	2.195931	3.635523	13.95523	
C	0.8757139999999999	3.469262	13.95523	
C	0.38277399999999995	2.192129	13.95523	
C	1.193348	1.087287	13.95523	
C	2.532309	1.23409	13.95523	
C	3.322174	-1.177708	13.95523	
C	2.638294	-3.57384	13.95523	
C	3.912222	-3.678856	13.95523	
S	1.906341	-2.00942	13.95523	
S	4.6978089999999995	-2.238075	13.95523	
C	3.452	0.148739	13.95523	
H	4.039887	2.671757	13.95523	
H	2.588147	4.625821	13.95523	
H	0.23760100000000017	4.32817	13.95523	
H	-0.6422439999999998	2.059055	13.95523	
H	0.7862650000000002	0.106768	13.95523	
H	2.028175	-4.381141	13.95523	
H	4.4887429999999995	-4.585343	13.95523	
H	4.434839	0.44358	13.95523	
