40
modified coordinates (angle = 180 degrees)
C	3.634717	-2.536374	7.977615	
C	4.449705	-3.635523	7.977615	
C	5.769922	-3.469262	7.977615	
C	6.262862	-2.192129	7.977615	
C	5.452288	-1.087287	7.977615	
C	4.113327	-1.23409	7.977615	
C	3.323462	1.177708	7.977615	
C	4.007342	3.57384	7.977615	
C	2.733414	3.678856	7.977615	
S	4.739295	2.00942	7.977615	
S	1.9478270000000002	2.238075	7.977615	
C	3.193636	-0.148739	7.977615	
H	2.6057490000000003	-2.671757	7.977615	
H	4.057489	-4.625821	7.977615	
H	6.408035	-4.32817	7.977615	
H	7.2878799999999995	-2.059055	7.977615	
H	5.859371	-0.106768	7.977615	
H	4.6174610000000005	4.381141	7.977615	
H	2.156893	4.585343	7.977615	
H	2.210797	-0.44358	7.977615	
C	4.010919	2.536374	13.95523	
C	3.195931	3.635523	13.95523	
C	1.8757139999999999	3.469262	13.95523	
C	1.382774	2.192129	13.95523	
C	2.1933480000000003	1.087287	13.95523	
C	3.532309	1.23409	13.95523	
C	4.322174	-1.177708	13.95523	
C	3.638294	-3.57384	13.95523	
C	4.912222	-3.678856	13.95523	
S	2.9063410000000003	-2.00942	13.95523	
S	5.6978089999999995	-2.238075	13.95523	
C	4.452	0.148739	13.95523	
H	5.039887	2.671757	13.95523	
H	3.588147	4.625821	13.95523	
H	1.2376010000000002	4.32817	13.95523	
H	0.3577560000000002	2.059055	13.95523	
H	1.7862650000000002	0.106768	13.95523	
H	3.028175	-4.381141	13.95523	
H	5.4887429999999995	-4.585343	13.95523	
H	5.434839	0.44358	13.95523	
