40
modified coordinates (angle = 180 degrees)
C	-0.365283	-1.536374	7.977615	
C	0.449705	-2.635523	7.977615	
C	1.769922	-2.469262	7.977615	
C	2.262862	-1.192129	7.977615	
C	1.452288	-0.08728699999999989	7.977615	
C	0.113327	-0.2340899999999999	7.977615	
C	-0.676538	2.177708	7.977615	
C	0.007342	4.573840000000001	7.977615	
C	-1.266586	4.678856	7.977615	
S	0.739295	3.00942	7.977615	
S	-2.052173	3.238075	7.977615	
C	-0.806364	0.851261	7.977615	
H	-1.394251	-1.671757	7.977615	
H	0.057489	-3.625821	7.977615	
H	2.408035	-3.32817	7.977615	
H	3.28788	-1.0590549999999999	7.977615	
H	1.859371	0.893232	7.977615	
H	0.617461	5.381141	7.977615	
H	-1.843107	5.585343	7.977615	
H	-1.789203	0.55642	7.977615	
C	0.010919	3.536374	13.95523	
C	-0.804069	4.635523	13.95523	
C	-2.124286	4.4692620000000005	13.95523	
C	-2.617226	3.192129	13.95523	
C	-1.806652	2.087287	13.95523	
C	-0.467691	2.23409	13.95523	
C	0.322174	-0.17770799999999998	13.95523	
C	-0.361706	-2.57384	13.95523	
C	0.912222	-2.678856	13.95523	
S	-1.093659	-1.00942	13.95523	
S	1.697809	-1.2380749999999998	13.95523	
C	0.452	1.148739	13.95523	
H	1.039887	3.671757	13.95523	
H	-0.411853	5.625821	13.95523	
H	-2.762399	5.32817	13.95523	
H	-3.642244	3.059055	13.95523	
H	-2.213735	1.106768	13.95523	
H	-0.971825	-3.3811410000000004	13.95523	
H	1.488743	-3.585343	13.95523	
H	1.434839	1.4435799999999999	13.95523	
