40
modified coordinates (angle = 180 degrees)
C	-0.365283	-0.5363739999999999	7.977615	
C	0.449705	-1.635523	7.977615	
C	1.769922	-1.469262	7.977615	
C	2.262862	-0.192129	7.977615	
C	1.452288	0.9127130000000001	7.977615	
C	0.113327	0.7659100000000001	7.977615	
C	-0.676538	3.177708	7.977615	
C	0.007342	5.573840000000001	7.977615	
C	-1.266586	5.678856	7.977615	
S	0.739295	4.00942	7.977615	
S	-2.052173	4.238075	7.977615	
C	-0.806364	1.851261	7.977615	
H	-1.394251	-0.6717569999999999	7.977615	
H	0.057489	-2.625821	7.977615	
H	2.408035	-2.32817	7.977615	
H	3.28788	-0.05905499999999986	7.977615	
H	1.859371	1.893232	7.977615	
H	0.617461	6.381141	7.977615	
H	-1.843107	6.585343	7.977615	
H	-1.789203	1.5564200000000001	7.977615	
C	0.010919	4.536374	13.95523	
C	-0.804069	5.635523	13.95523	
C	-2.124286	5.4692620000000005	13.95523	
C	-2.617226	4.1921289999999996	13.95523	
C	-1.806652	3.087287	13.95523	
C	-0.467691	3.23409	13.95523	
C	0.322174	0.822292	13.95523	
C	-0.361706	-1.5738400000000001	13.95523	
C	0.912222	-1.6788560000000001	13.95523	
S	-1.093659	-0.009419999999999984	13.95523	
S	1.697809	-0.23807499999999981	13.95523	
C	0.452	2.148739	13.95523	
H	1.039887	4.6717569999999995	13.95523	
H	-0.411853	6.625821	13.95523	
H	-2.762399	6.32817	13.95523	
H	-3.642244	4.059055	13.95523	
H	-2.213735	2.106768	13.95523	
H	-0.971825	-2.3811410000000004	13.95523	
H	1.488743	-2.585343	13.95523	
H	1.434839	2.44358	13.95523	
