40
modified coordinates (angle = 180 degrees)
C	-0.365283	0.4636260000000001	7.977615	
C	0.449705	-0.6355230000000001	7.977615	
C	1.769922	-0.46926200000000007	7.977615	
C	2.262862	0.807871	7.977615	
C	1.452288	1.912713	7.977615	
C	0.113327	1.76591	7.977615	
C	-0.676538	4.177708	7.977615	
C	0.007342	6.573840000000001	7.977615	
C	-1.266586	6.678856	7.977615	
S	0.739295	5.00942	7.977615	
S	-2.052173	5.238075	7.977615	
C	-0.806364	2.851261	7.977615	
H	-1.394251	0.32824300000000006	7.977615	
H	0.057489	-1.6258210000000002	7.977615	
H	2.408035	-1.32817	7.977615	
H	3.28788	0.9409450000000001	7.977615	
H	1.859371	2.893232	7.977615	
H	0.617461	7.381141	7.977615	
H	-1.843107	7.585343	7.977615	
H	-1.789203	2.55642	7.977615	
C	0.010919	5.536374	13.95523	
C	-0.804069	6.635523	13.95523	
C	-2.124286	6.4692620000000005	13.95523	
C	-2.617226	5.1921289999999996	13.95523	
C	-1.806652	4.087287	13.95523	
C	-0.467691	4.23409	13.95523	
C	0.322174	1.822292	13.95523	
C	-0.361706	-0.5738400000000001	13.95523	
C	0.912222	-0.6788560000000001	13.95523	
S	-1.093659	0.99058	13.95523	
S	1.697809	0.7619250000000002	13.95523	
C	0.452	3.148739	13.95523	
H	1.039887	5.6717569999999995	13.95523	
H	-0.411853	7.625821	13.95523	
H	-2.762399	7.32817	13.95523	
H	-3.642244	5.059055	13.95523	
H	-2.213735	3.106768	13.95523	
H	-0.971825	-1.3811410000000004	13.95523	
H	1.488743	-1.585343	13.95523	
H	1.434839	3.44358	13.95523	
