40
modified coordinates (angle = 180 degrees)
C	-0.365283	1.463626	7.977615	
C	0.449705	0.36447699999999994	7.977615	
C	1.769922	0.5307379999999999	7.977615	
C	2.262862	1.807871	7.977615	
C	1.452288	2.912713	7.977615	
C	0.113327	2.76591	7.977615	
C	-0.676538	5.177708	7.977615	
C	0.007342	7.573840000000001	7.977615	
C	-1.266586	7.678856	7.977615	
S	0.739295	6.00942	7.977615	
S	-2.052173	6.238075	7.977615	
C	-0.806364	3.851261	7.977615	
H	-1.394251	1.328243	7.977615	
H	0.057489	-0.6258210000000002	7.977615	
H	2.408035	-0.3281700000000001	7.977615	
H	3.28788	1.9409450000000001	7.977615	
H	1.859371	3.893232	7.977615	
H	0.617461	8.381141	7.977615	
H	-1.843107	8.585343	7.977615	
H	-1.789203	3.55642	7.977615	
C	0.010919	6.536374	13.95523	
C	-0.804069	7.635523	13.95523	
C	-2.124286	7.4692620000000005	13.95523	
C	-2.617226	6.1921289999999996	13.95523	
C	-1.806652	5.087287	13.95523	
C	-0.467691	5.23409	13.95523	
C	0.322174	2.822292	13.95523	
C	-0.361706	0.42615999999999987	13.95523	
C	0.912222	0.3211439999999999	13.95523	
S	-1.093659	1.99058	13.95523	
S	1.697809	1.7619250000000002	13.95523	
C	0.452	4.148739	13.95523	
H	1.039887	6.6717569999999995	13.95523	
H	-0.411853	8.625821	13.95523	
H	-2.762399	8.32817	13.95523	
H	-3.642244	6.059055	13.95523	
H	-2.213735	4.106768	13.95523	
H	-0.971825	-0.3811410000000004	13.95523	
H	1.488743	-0.585343	13.95523	
H	1.434839	4.44358	13.95523	
