8
Coordinates from ORCA-job ch3cooh
  C   -8.21173637672739      1.72810081597637     -0.00801312284503
  C   -6.78286558607064      2.21372206594993      0.03907495704937
  H   -8.27710441457001      0.64220886050615     -0.15097885988639
  H   -8.73484354568225      2.24673381024654     -0.82599003836720
  H   -8.71386708868791      2.01483581588763      0.92906149223628
  O   -6.44620403178165      3.36147261844663      0.18974900037064
  O   -5.89243548831359      1.20972187953472     -0.10797830980414
  H   -5.00916346816653      1.61714413345203     -0.06492511875354
