%nprocshared=4 
%mem=1GB
%chk=nap.chk
# opt  

[No Title]

0 1 
    C           4.26526193           1.11174412           3.13234053
    C           5.60486493           0.78730116           3.10732615
    C           6.56384851           1.78786866           3.07463611
    C           6.16304225           3.11340634           3.06933542
    C           4.82142761           3.44285817           3.09511050
    C           3.84112743           2.44745050           3.12864423
    C           1.72843398           3.84743241           3.22390344
    C           0.81655703           6.28107383           3.33413251
    C          -0.27249281           5.51693851           3.33643216
    S           2.36546259           5.48945854           3.26642385
    S          -0.03993261           3.79553257           3.27745735
    C           2.41923416           2.69330610           3.16231200
    H           3.52225297           0.32722390           3.16520712
    H           5.90801008          -0.25005134           3.11670813
    H           7.61409871           1.53614263           3.05786475
    H           6.90399223           3.89985111           3.04992845
    H           4.53912963           4.48372184           3.09054304
    H           0.82762175           7.35430067           3.37319502
    H          -1.28576554           5.87068885           3.37607355
    H           1.81224895           1.79560673           3.15307310
    C          -3.87293321          -0.96705039           3.39730257
    C          -5.24161963          -0.78350621           3.40523777
    C          -5.78051238           0.49189998           3.38249161
    C          -4.93213351           1.58794368           3.35251935
    C          -3.56461076           1.40974309           3.34035291
    C          -3.00271424           0.12576972           3.36215338
    C          -0.76771836          -1.06820893           3.34548856
    C           0.38458771          -3.40285167           3.31035542
    C           1.39217184          -2.53491694           3.29519017
    S          -1.23623604          -2.76697447           3.35985366
    S           0.98681165          -0.84609721           3.32903593
    C          -1.56391977           0.01828984           3.34091922
    H          -3.48217014          -1.97153340           3.42776461
    H          -5.89362448          -1.64473045           3.43030606
    H          -6.85167898           0.63123013           3.39338234
    H          -5.34459564           2.58653837           3.33741310
    H          -2.90969102           2.26999256           3.31649587
    H           0.48299527          -4.47249753           3.29656828
    H           2.43642211          -2.78494499           3.26752901
    H          -1.04145242           0.96828924           3.32215476

 
