77
       -105.32640678
 H          0.5887915069        3.6361900749        0.3727905460
 C          1.4345145472        2.9687561906        0.2975502888
 C          3.6322793493        1.2607535958        0.0866560082
 C          1.2650330701        1.7307738576       -0.3204288674
 C          2.6533798542        3.3708784728        0.7982768649
 C          3.7846272689        2.5361056905        0.6890731126
 C          2.3678792288        0.8380401898       -0.4052816150
 H          2.7561395256        4.3388886043        1.2646185120
 C          4.7571440262        0.4135912576       -0.0255059593
 C          7.0321848446       -1.2847458722       -0.2928403931
 C          4.6374895886       -0.8686264976       -0.6117272153
 C          6.0259486920        0.8367503424        0.4415823262
 C          7.1337478282       -0.0231059177        0.2951745773
 C          5.7795072261       -1.6918057698       -0.7322741017
 H          8.0888053097        0.3273676921        0.6562908410
 H          5.6488607740       -2.6609988882       -1.1862964371
 C          5.0547752524        2.9356475313        1.1598437172
 H          5.1559511190        3.9080568904        1.6180495921
 C          6.1472375526        2.1124855581        1.0363244586
 H          7.1134101579        2.4354873456        1.3940144348
 C          2.2721233684       -0.4621672177       -0.9595285463
 H          1.3170975665       -0.8262218740       -1.3052508551
 C          3.3651059522       -1.2846045548       -1.0590083796
 H          3.2601558392       -2.2688179059       -1.4907178925
 C          8.2744134322       -2.1444232361       -0.4279753390
 C          8.8506955565       -2.4061920895        0.9723095338
 H          9.1478899097       -1.4869546422        1.4692106942
 H          9.7290721265       -3.0397825514        0.8894337336
 H          8.1193984445       -2.9149393713        1.5967442949
 C          9.3032099421       -1.3858919835       -1.2811586719
 H         10.1895025272       -2.0002567318       -1.4111876235
 H          9.6090936487       -0.4525895232       -0.8166827150
 H          8.8936212980       -1.1633844316       -2.2641357871
 C          7.9858926636       -3.4900374914       -1.0952048956
 H          7.2822119831       -4.0796113272       -0.5115851939
 H          8.9091627945       -4.0581532990       -1.1679338242
 H          7.6012751358       -3.3575434982       -2.1040911116
 C         -0.0784556158        1.4159374625       -0.9097800495
 H          0.0346950560        0.7918935805       -1.8010589121
 H         -0.5258212712        2.3597906636       -1.2370683125
 H          0.4044722088        0.4185993429        1.5652081904
 C         -0.6297917261        0.2991837056        1.2793135598
 C         -3.3143060196       -0.0080205985        0.5684070089
 C         -1.5059450287       -0.2875524476        2.1674862190
 C         -1.0470224043        0.7488094311        0.0297540531
 C         -2.4087006176        0.5843949172       -0.3514632588
 C         -2.8670538296       -0.4480563966        1.8405369731
 C         -4.6766652974       -0.1602515865        0.2267363580
 C         -7.4311832525       -0.4391889555       -0.4578690503
 C         -5.5885356140       -0.7373048927        1.1447827422
 C         -5.1550761774        0.2651870787       -1.0348373795
 C         -6.5238256979        0.1153204131       -1.3513167670
 C         -6.9449055366       -0.8617977639        0.7797052028
 H         -6.8501278326        0.4516079788       -2.3224074137
 H         -7.6172034999       -1.3026259533        1.5002532862
 C         -2.9132893939        0.9875954820       -1.6117977784
 H         -2.2484485082        1.4261783508       -2.3391991279
 C         -4.2359269253        0.8333554764       -1.9421818581
 H         -4.5884250500        1.1533347350       -2.9113717740
 C         -3.7893756962       -1.0285928777        2.7392810596
 H         -3.4352046604       -1.3613471844        3.7034554179
 C         -5.1134783748       -1.1679316406        2.4037665901
 H         -5.8071575356       -1.6094689098        3.1035099294
 C         -8.9068538117       -0.5959270859       -0.7719836656
 C         -9.2659787842       -0.0888394637       -2.1696055330
 H         -8.7376242191       -0.6449270255       -2.9409036053
 H         -9.0514878980        0.9725365732       -2.2733856854
 H        -10.3306872990       -0.2260158739       -2.3372895346
 C         -9.7139506944        0.2061382593        0.2609717006
 H        -10.7735360685        0.1231738020        0.0368325397
 H         -9.4383406485        1.2579987237        0.2271765695
 H         -9.5562929567       -0.1583881119        1.2722982923
 C         -9.2777395506       -2.0843298108       -0.6823927407
 H         -8.6878475600       -2.6675588246       -1.3861830554
 H        -10.3278363711       -2.2113426248       -0.9294319748
 H         -9.1186187613       -2.4845934054        0.3149966615
 H         -1.1538065669       -0.6237395234        3.1309971214
