77
       -105.32494932
 H         -0.2779760999        1.8900930037        0.5565089433
 C          0.7471300664        1.5601976921        0.4721822623
 C          3.3993983387        0.7190859587        0.2672977618
 C          1.0817558685        0.2843215575        0.9215809303
 C          1.6880604146        2.4154685133       -0.0577378232
 C          3.0347590371        2.0188440603       -0.1676006883
 C          2.4264454724       -0.1659959745        0.8110545163
 H          1.4008578314        3.4027535828       -0.3863224898
 C          4.7487556443        0.3133487043        0.1573521873
 C          7.4736584439       -0.5060325427       -0.0631582070
 C          5.1496387536       -0.9756019285        0.5790040244
 C          5.7269317437        1.1911430664       -0.3742072402
 C          7.0677870870        0.7598711272       -0.4718278700
 C          6.5025707928       -1.3573174030        0.4593666505
 H          7.7837795584        1.4544706391       -0.8811733549
 H          6.7739199850       -2.3482688621        0.7907825954
 C          4.0233193509        2.8800526611       -0.6947996286
 H          3.7302651624        3.8673381538       -1.0191209491
 C          5.3327638958        2.4803897855       -0.7940204179
 H          6.0768131375        3.1518537052       -1.1955309430
 C          2.8601859119       -1.4512639711        1.2181341564
 H          2.1530882773       -2.1555727074        1.6282776992
 C          4.1700012622       -1.8425984016        1.1085462963
 H          4.4646878123       -2.8296774368        1.4324076603
 C          8.9103317511       -0.9819357968       -0.1660684819
 C          8.9522773415       -2.2279786148       -1.0646707924
 H          8.3691217694       -3.0466317718       -0.6520117842
 H          9.9791564780       -2.5669283480       -1.1667289746
 H          8.5685487880       -1.9961585245       -2.0559274260
 C          9.4146816119       -1.3365910368        1.2414201429
 H          8.8397865776       -2.1431863153        1.6879861720
 H          9.3584867143       -0.4695731899        1.8960403089
 H         10.4514847949       -1.6555220637        1.1856862915
 C          9.8387234323        0.0775856829       -0.7619225652
 H          9.8679499638        0.9720845214       -0.1437021347
 H          9.5399048551        0.3428876344       -1.7737010548
 H         10.8490008558       -0.3192196021       -0.8119248520
 C         -0.0261848289       -0.5363141242        1.5232347514
 H         -0.4100977018       -0.0008170171        2.3921445854
 H          0.3381577704       -1.5018549914        1.8753788290
 H          0.2749203736       -1.8481028696       -0.7282140932
 C         -0.7488658023       -1.5197887039       -0.6240663614
 C         -3.3963794747       -0.6842347515       -0.3472217526
 C         -1.6634898719       -1.8471153094       -1.5977917347
 C         -1.1080390911       -0.7885262173        0.5093378556
 C         -2.4482228406       -0.3429823774        0.6578928309
 C         -3.0095051310       -1.4434866877       -1.4811369448
 C         -4.7425874465       -0.2720143095       -0.2254712476
 C         -7.4584387030        0.5669769902        0.0249491517
 C         -5.6944678577       -0.6160543476       -1.2170434545
 C         -5.1668473289        0.4890283275        0.8895439059
 C         -6.5163801947        0.8937030440        0.9910869398
 C         -7.0296392628       -0.1898495171       -1.0664346276
 H         -6.7987850159        1.4730505981        1.8554536023
 H         -7.7323494975       -0.4699191100       -1.8366449076
 C         -2.9048223842        0.4235749472        1.7590223427
 H         -2.2170351774        0.7098882547        2.5396133279
 C         -4.2113649597        0.8236021615        1.8722995153
 H         -4.5230162909        1.4046558510        2.7274536964
 C         -3.9721996269       -1.7773625092       -2.4589705476
 H         -3.6618986774       -2.3583781968       -3.3144577219
 C         -5.2793328464       -1.3782426106       -2.3318190873
 H         -6.0046904725       -1.6442122255       -3.0860041054
 C         -8.9111520315        0.9938083884        0.1106240826
 C         -9.7923891435       -0.2648428231        0.1441805629
 H         -9.5403096037       -0.8837591875        1.0025512424
 H         -9.6815522483       -0.8632453835       -0.7558497045
 H        -10.8357820791        0.0256747940        0.2266032896
 C         -9.2518280460        1.8348700000       -1.1297959238
 H        -10.2829446315        2.1706880252       -1.0677371369
 H         -9.1401876341        1.2678787735       -2.0498110944
 H         -8.6092033602        2.7110233951       -1.1847021858
 C         -9.2050411040        1.8277300558        1.3584802049
 H         -9.0132609854        1.2621964158        2.2676331715
 H        -10.2546076576        2.1086927023        1.3623484238
 H         -8.6193322320        2.7444255120        1.3690435884
 H         -1.3598826992       -2.4243539091       -2.4578508366
