77
       -105.32473154
 H         -0.3182800795        1.9298085120        0.8821607802
 C          0.6984333325        1.5935081560        0.7416911173
 C          3.3268614705        0.7298851513        0.3829739408
 C          1.0471760373        0.3093420593        1.1618841323
 C          1.6151929945        2.4456183363        0.1710161211
 C          2.9516207692        2.0377611213       -0.0175923855
 C          2.3775401008       -0.1506202910        0.9738862935
 H          1.3202300525        3.4386679639       -0.1322208422
 C          4.6628172810        0.3113137094        0.1903776897
 C          7.3559445857       -0.5444579231       -0.2063301262
 C          5.0756355235       -0.9865430321        0.5744771255
 C          5.6155123902        1.1849916257       -0.3899220683
 C          6.9392618723        0.7361720488       -0.5724939271
 C          6.4141725521       -1.3877477313        0.3677483214
 H          7.6428989050        1.4253411116       -1.0145486866
 H          6.6882492873       -2.3845393736        0.6740712672
 C          3.9157780147        2.8959723288       -0.5905819222
 H          3.6148720046        3.8901889179       -0.8850547044
 C          5.2126552564        2.4842760462       -0.7713217006
 H          5.9391290897        3.1525042659       -1.2087987034
 C          2.8239924385       -1.4424868161        1.3486343981
 H          2.1373132449       -2.1406761659        1.8018829208
 C          4.1202099021       -1.8461780707        1.1565491417
 H          4.4239978311       -2.8380875751        1.4564218759
 C          8.7954627798       -0.9564088623       -0.4470147484
 C          9.0797517966       -2.3886766207        0.0075674314
 H         10.1204513320       -2.6280746971       -0.1928569116
 H          8.4673578972       -3.1054998985       -0.5352427255
 H          8.9159419832       -2.5050953128        1.0765823908
 C          9.7183908899       -0.0042746218        0.3297409301
 H          9.6181805287        1.0241447792       -0.0058782667
 H         10.7523258026       -0.3039645937        0.1847308228
 H          9.4967814387       -0.0425801037        1.3940682896
 C          9.0898013001       -0.8540965493       -1.9520874441
 H          8.9789837508        0.1620571407       -2.3203640709
 H          8.4203184064       -1.4999355560       -2.5163216831
 H         10.1113145529       -1.1695849752       -2.1438637346
 C         -0.0368340936       -0.5143143143        1.8032115168
 H         -0.4590883462        0.0578397874        2.6290990942
 H          0.3601147911       -1.4403732709        2.2186593915
 H          0.3054706317       -2.1082863830       -0.2567490785
 C         -0.7087879990       -1.7375812871       -0.2369943824
 C         -3.3309789304       -0.7864621127       -0.1852843925
 C         -1.5941123752       -2.1507320915       -1.2053555655
 C         -1.0869742803       -0.8644100491        0.7836912795
 C         -2.4142275353       -0.3603044553        0.8165318227
 C         -2.9267666557       -1.6903287759       -1.2008828363
 C         -4.6631382349       -0.3148832470       -0.1785196141
 C         -7.3483804688        0.6505339868       -0.1658122873
 C         -5.5836602975       -0.7405708970       -1.1680256998
 C         -5.1042208080        0.5894281075        0.8164917134
 C         -6.4382537094        1.0536933545        0.8020583795
 C         -6.9042388297       -0.2484616591       -1.1365108660
 H         -6.7345393286        1.7416417488        1.5776102134
 H         -7.5830254136       -0.5927475304       -1.9021378269
 C         -2.8885022257        0.5442162004        1.7991686478
 H         -2.2270460704        0.8908837032        2.5780955332
 C         -4.1808600507        1.0023186966        1.8001239057
 H         -4.5065067156        1.6899676740        2.5664085693
 C         -3.8592335005       -2.1067501446       -2.1763545199
 H         -3.5366975108       -2.7993561615       -2.9392390119
 C         -5.1526623319       -1.6475349604       -2.1617826249
 H         -5.8547835863       -1.9765675795       -2.9130756312
 C         -8.7819794749        1.1434171794       -0.2076151712
 C         -9.7241104726       -0.0649094554       -0.0898232403
 H         -9.5442727952       -0.5991629294        0.8405490466
 H         -9.6002613259       -0.7601412462       -0.9154350013
 H        -10.7547816487        0.2779948122       -0.0934882315
 C         -9.0157871362        1.8571155674       -1.5486412709
 H        -10.0327027419        2.2371264663       -1.5845124288
 H         -8.8783155603        1.1891609520       -2.3944748620
 H         -8.3324461366        2.6966057468       -1.6580123232
 C         -9.0997093550        2.1206792139        0.9250299251
 H         -8.9781145386        1.6515864801        1.8988617763
 H        -10.1346693038        2.4408497431        0.8419721334
 H         -8.4752935070        3.0096908354        0.8680905530
 H         -1.2772164453       -2.8376832077       -1.9752808860
