77
       -105.32632568
 H          0.5616859108        3.5988210169        0.1431370026
 C          1.4144021978        2.9361177101        0.1331155065
 C          3.6288774284        1.2369905308        0.1260375961
 C          1.2549996667        1.6244842662        0.5783979539
 C          2.6306689132        3.4135995518       -0.3027979747
 C          3.7698786714        2.5824208925       -0.3011899167
 C          2.3671170813        0.7398352603        0.5512831139
 H          2.7253421021        4.4362650841       -0.6348113063
 C          4.7622595740        0.3936692842        0.1289126004
 C          7.0536152172       -1.3036079592        0.1721640935
 C          4.6548871409       -0.9562474245        0.5393061597
 C          6.0274197183        0.8873792937       -0.2743706668
 C          7.1433228031        0.0262408111       -0.2417293604
 C          5.8048333589       -1.7772341106        0.5518369107
 H          8.0951158329        0.4308640663       -0.5511428809
 H          5.6834279885       -2.7993472582        0.8730061044
 C          5.0367229910        3.0533796497       -0.7106760314
 H          5.1287280518        4.0788731260       -1.0357216566
 C          6.1371025383        2.2317681339       -0.6944077299
 H          7.1005524423        2.6084538888       -1.0035943034
 C          2.2844187454       -0.6232454845        0.9284926073
 H          1.3328320997       -1.0403458639        1.2192567904
 C          3.3859657489       -1.4402786333        0.9233468054
 H          3.2902361518       -2.4738901077        1.2208924644
 C          8.3034406828       -2.1627436753        0.1886471435
 C          8.8706122576       -2.2351899301       -1.2378606936
 H          8.1382300225       -2.6642773669       -1.9183237814
 H          9.7543945713       -2.8666404377       -1.2444724193
 H          9.1566309695       -1.2563583974       -1.6125204608
 C          8.0298588577       -3.5859596926        0.6770011199
 H          7.3296407420       -4.1021505083        0.0238986016
 H          7.6476028198       -3.5885427679        1.6953993659
 H          8.9586460557       -4.1497366112        0.6735347936
 C          9.3335350058       -1.5137317402        1.1261843272
 H          9.6277889847       -0.5244643683        0.7869327489
 H         10.2260471431       -2.1315582908        1.1666723207
 H          8.9312592835       -1.4269639661        2.1332217593
 C         -0.0913738666        1.2213001439        1.1039847269
 H         -0.5377721108        2.1010373511        1.5782954516
 H          0.0130945593        0.4594052509        1.8815556429
 H          0.4119343607        0.6224245534       -1.4915359435
 C         -0.6266449380        0.4710947356       -1.2382311074
 C         -3.3217470244        0.0789588316       -0.6152673953
 C         -1.4981578082        0.0406326325       -2.2188514687
 C         -1.0542566842        0.7216119128        0.0600655557
 C         -2.4236562079        0.5112776563        0.3966381426
 C         -2.8622334372       -0.1569544192       -1.9362298589
 C         -4.6886235346       -0.1171572653       -0.3163452526
 C         -7.4515866345       -0.4951597768        0.2820418183
 C         -5.5946173881       -0.5366548514       -1.3228740549
 C         -5.1769875025        0.1052714936        0.9917285973
 C         -6.5479733767       -0.0897910524        1.2625162527
 C         -6.9574945415       -0.7148820934       -0.9989310861
 H         -6.8889812360        0.0877880831        2.2713132912
 H         -7.6184636708       -1.0319252440       -1.7896661758
 C         -2.9390154694        0.7147461618        1.6989617879
 H         -2.2801171961        1.0291107789        2.4929673190
 C         -4.2660780080        0.5185594988        1.9876470245
 H         -4.6278098496        0.6838444100        2.9915451750
 C         -3.7792825049       -0.5801787267       -2.9250902950
 H         -3.4166827982       -0.7570599556       -3.9266324708
 C         -5.1074152470       -0.7627919152       -2.6288910398
 H         -5.7955424259       -1.0827218608       -3.3969326134
 C         -8.9137320361       -0.6786719165        0.6424963278
 C         -9.7609996332       -1.1217527317       -0.5514524697
 H         -9.4297755923       -2.0829744522       -0.9381361756
 H         -9.7411259849       -0.3813990728       -1.3481906079
 H        -10.7941532851       -1.2343903273       -0.2344945660
 C         -9.4635507888        0.6590469340        1.1613280775
 H         -9.3645545488        1.4322844455        0.4025316263
 H         -8.9489036853        0.9898896811        2.0592653912
 H        -10.5172036956        0.5491266703        1.4012112920
 C         -9.0200781877       -1.7484409530        1.7405642510
 H         -8.6032136627       -2.6921069999        1.3954186294
 H        -10.0648810327       -1.9081813804        1.9908094157
 H         -8.5001990620       -1.4533092551        2.6478433161
 H         -1.1360457178       -0.1420318516       -3.2193261797
