77
       -105.32460813
 H         -0.3305103741        1.7924411547        1.1306546550
 C          0.6885694044        1.4841266717        0.9490722461
 C          3.3246595287        0.6980785245        0.4842294551
 C          1.0438581772        0.1583428772        1.1875459103
 C          1.6028755682        2.4146140485        0.5061612171
 C          2.9409430198        2.0462445073        0.2683284067
 C          2.3801300948       -0.2629654220        0.9422989783
 H          1.3010675320        3.4382121574        0.3438132221
 C          4.6646091040        0.3199978363        0.2411394211
 C          7.3682026954       -0.4457682054       -0.2580006595
 C          5.0839359315       -1.0153837141        0.4430053491
 C          5.6145953851        1.2719098792       -0.2075665749
 C          6.9455081642        0.8657565908       -0.4463699165
 C          6.4258215567       -1.3692881275        0.1888995117
 H          7.6399531919        1.6171130692       -0.7867768474
 H          6.7117883392       -2.3972756097        0.3529829261
 C          3.9022195396        2.9818695038       -0.1759997175
 H          3.5953831188        4.0053923107       -0.3310657625
 C          5.2027164626        2.6078277420       -0.4061183154
 H          5.9258909396        3.3354485496       -0.7426685368
 C          2.8330692754       -1.5909813946        1.1349293120
 H          2.1494738409       -2.3503365209        1.4819296239
 C          4.1332918211       -1.9553830936        0.8951675866
 H          4.4431524164       -2.9773491818        1.0554082845
 C          8.7927475632       -0.8960716160       -0.5206665664
 C          9.3803622881       -1.4660139613        0.7795630650
 H          9.3693928839       -0.7132469154        1.5647974617
 H         10.4099864868       -1.7678631895        0.6106287630
 H          8.8297533331       -2.3353871182        1.1280997004
 C          9.6906486964        0.2457606585       -0.9997642521
 H          9.3336746644        0.6640268533       -1.9383855588
 H         10.6935706376       -0.1354875257       -1.1712885385
 H          9.7624764251        1.0335160078       -0.2531357491
 C          8.7693537839       -1.9856979210       -1.6044033310
 H          8.2059854334       -2.8597692113       -1.2893773691
 H          9.7852153026       -2.3026648848       -1.8219204104
 H          8.3270242661       -1.6019355519       -2.5212933568
 C         -0.0355639725       -0.7549080598        1.7035619799
 H         -0.4620954268       -0.3095278436        2.6020941015
 H          0.3662914655       -1.7285263554        1.9831512022
 H          0.3188411798       -2.0363727721       -0.5622839451
 C         -0.6973022093       -1.6770583758       -0.4924159057
 C         -3.3245188836       -0.7560720395       -0.3118381310
 C         -1.5787224741       -1.9519725640       -1.5120408193
 C         -1.0818805147       -0.9607676742        0.6417855626
 C         -2.4117229601       -0.4727661873        0.7427557110
 C         -2.9137717380       -1.5034978211       -1.4451791597
 C         -4.6591709761       -0.2969960338       -0.2409923564
 C         -7.3500257671        0.6414593407       -0.0960320334
 C         -5.5757640236       -0.5815706852       -1.2833849379
 C         -5.1067805891        0.4533852648        0.8720856250
 C         -6.4434960676        0.9073558876        0.9213819840
 C         -6.8990961852       -0.1061607186       -1.1848255552
 H         -6.7448163671        1.4756960892        1.7866778647
 H         -7.5745291664       -0.3401956713       -1.9938292566
 C         -2.8922761427        0.2800798122        1.8431983055
 H         -2.2336160940        0.5161106835        2.6647025051
 C         -4.1871870769        0.7263677178        1.9067253457
 H         -4.5177858401        1.2957884332        2.7626226897
 C         -3.8422460316       -1.7805535497       -2.4726095488
 H         -3.5146378866       -2.3550855565       -3.3260209199
 C         -5.1381253415       -1.3347314371       -2.3956773820
 H         -5.8372318246       -1.5565886688       -3.1879566959
 C         -8.7866299292        1.1265610436       -0.0695782538
 C         -9.1127399121        1.9266506469        1.1923209896
 H         -8.9889674522        1.3217731538        2.0878727403
 H        -10.1498678390        2.2483233789        1.1543610580
 H         -8.4946806857        2.8188022277        1.2666879924
 C         -9.7214940349       -0.0914821984       -0.1316041467
 H         -9.5922742848       -0.6580388309       -1.0495564119
 H        -10.7542559371        0.2421868476       -0.0875334237
 H         -9.5396932786       -0.7547878086        0.7112212990
 C         -9.0222727656        2.0265212554       -1.2931377407
 H         -8.3444948033        2.8774070063       -1.2767769277
 H        -10.0417109899        2.4010625374       -1.2766052282
 H         -8.8781394604        1.4897512044       -2.2267319467
 H         -1.2569698438       -2.5205250568       -2.3713008310
