77
       -105.32459379
 H         -0.3340366191        1.5717442068        1.4307131806
 C          0.6849473680        1.2918482828        1.2074054049
 C          3.3205814361        0.5748306494        0.6398116745
 C          1.0740647511        1.1718723882       -0.1248756913
 C          1.5661987740        1.0812468503        2.2451718590
 C          2.9033326245        0.7232330578        1.9871364864
 C          2.4103445321        0.7934683606       -0.4322126277
 H          1.2389821197        1.1957282552        3.2674339691
 C          4.6595400691        0.2088585611        0.3738251344
 C          7.3604970002       -0.5402444970       -0.1633968299
 C          5.1117856065        0.0495918515       -0.9565669444
 C          5.5755672407       -0.0036917341        1.4347954525
 C          6.9059217146       -0.3735286601        1.1403740750
 C          6.4517827444       -0.3211141731       -1.1963025314
 H          7.5739373457       -0.5269649906        1.9727679196
 H          6.7635913761       -0.4336693729       -2.2237120965
 C          3.8312537470        0.5110272216        3.0315392073
 H          3.4993196433        0.6329600296        4.0517071719
 C          5.1310303833        0.1592905863        2.7650449641
 H          5.8285283397        0.0033496209        3.5742789800
 C          2.8958370736        0.6266816319       -1.7521949360
 H          2.2389953520        0.7839599396       -2.5937153427
 C          4.1949972682        0.2686746641       -2.0069298268
 H          4.5302917096        0.1528206617       -3.0268625437
 C          8.7846362580       -0.9466216876       -0.4917617203
 C          9.4269657837        0.1522876258       -1.3524141827
 H          8.9053668739        0.2866974590       -2.2959960296
 H         10.4560280752       -0.1154799488       -1.5740063756
 H          9.4276789157        1.1012241077       -0.8205489634
 C          8.7488659210       -2.2686622341       -1.2747471470
 H          9.7636279153       -2.5869555404       -1.4954362213
 H          8.2171246015       -2.1686456106       -2.2169962805
 H          8.2665324046       -3.0468549647       -0.6870427215
 C          9.6414512727       -1.1467955928        0.7593923546
 H          9.7234774951       -0.2275877325        1.3351212544
 H         10.6453169971       -1.4381579903        0.4627794293
 H          9.2429490410       -1.9382797488        1.3903993027
 C          0.0296648396        1.4611708488       -1.1694005744
 H          0.4601811333        1.4736205564       -2.1704298297
 H         -0.3806685123        2.4528307651       -0.9800137777
 H          0.3447249743       -1.0628173323       -1.8275564313
 C         -0.6756834280       -0.8815068389       -1.5235534969
 C         -3.3137449367       -0.4151111882       -0.7449928256
 C         -1.5800611890       -1.9174945330       -1.5546834131
 C         -1.0417760618        0.4053250543       -1.1268508713
 C         -2.3771753526        0.6560952415       -0.7137108320
 C         -2.9210208122       -1.7094460097       -1.1719380187
 C         -4.6542902052       -0.2006395855       -0.3525618159
 C         -7.3571047856        0.2369618877        0.4509961803
 C         -5.5944560319       -1.2601080172       -0.3889238114
 C         -5.0843430900        1.0755222034        0.0819879122
 C         -6.4273206223        1.2677633344        0.4754160753
 C         -6.9233236158       -1.0148465330        0.0122270673
 H         -6.7146160004        2.2548738457        0.8003949686
 H         -7.6170613888       -1.8409956706       -0.0287510890
 C         -2.8406515780        1.9214871485       -0.2748306188
 H         -2.1637995530        2.7610579977       -0.2372247661
 C         -4.1413087116        2.1246173122        0.1086575399
 H         -4.4582908576        3.1037219463        0.4357302337
 C         -3.8727323016       -2.7523245121       -1.2049064742
 H         -3.5584740823       -3.7303344185       -1.5372726949
 C         -5.1742300271       -2.5360526008       -0.8263347318
 H         -5.8911361198       -3.3426686422       -0.8593635029
 C         -8.8014546771        0.4175083504        0.8766188313
 C         -9.7127718782        0.0808669448       -0.3140914041
 H         -9.5983437323       -0.9505766527       -0.6356361541
 H         -9.4930877453        0.7312375862       -1.1579667767
 H        -10.7504151794        0.2291029902       -0.0291305526
 C         -9.1045533647        1.8452300995        1.3333869464
 H        -10.1479338608        1.9127935551        1.6289363647
 H         -8.9437638826        2.5608501587        0.5301407333
 H         -8.5005078883        2.1221584108        2.1947386973
 C         -9.0931155141       -0.5404788597        2.0425933811
 H        -10.1182498390       -0.4050624741        2.3751359313
 H         -8.4310902456       -0.3336175965        2.8807947447
 H         -8.9695921516       -1.5809641193        1.7552026230
 H         -1.2718564559       -2.8996006457       -1.8796252077
