77
       -105.32449402
 H         -0.3347515825        1.9158121920        1.0028079691
 C          0.6811945263        1.5887102741        0.8375221777
 C          3.3086589857        0.7544977828        0.4098821090
 C          1.0432448424        0.2973902615        1.2143425395
 C          1.5852367925        2.4643006993        0.2771573633
 C          2.9187069581        2.0708758205        0.0542730272
 C          2.3754035126       -0.1489005603        0.9916445714
 H          1.2786830187        3.4639679221        0.0090227830
 C          4.6435473768        0.3503383269        0.1812105321
 C          7.3351231233       -0.4708865777       -0.2941555238
 C          5.0689740319       -0.9548518617        0.5207608546
 C          5.5821255431        1.2453896204       -0.3913941366
 C          6.9072839334        0.8128538390       -0.6153770837
 C          6.4048342821       -1.3370356347        0.2759637336
 H          7.5929596107        1.5208803879       -1.0526445979
 H          6.6958232785       -2.3406400626        0.5471790970
 C          3.8692024990        2.9508772783       -0.5105461864
 H          3.5580220811        3.9516322734       -0.7702472918
 C          5.1647164123        2.5519891697       -0.7265173891
 H          5.8795872871        3.2371170651       -1.1569025276
 C          2.8350985920       -1.4467593647        1.3235397550
 H          2.1611894277       -2.1610003915        1.7708006579
 C          4.1302641437       -1.8369908474        1.0973342365
 H          4.4453974972       -2.8345765263        1.3649877456
 C          8.7527565606       -0.9508200214       -0.5415154760
 C          8.7019247245       -2.1564614805       -1.4933926003
 H          8.1490801182       -2.9884788384       -1.0659283761
 H          9.7120809691       -2.4973537693       -1.7011174282
 H          8.2341188925       -1.8788050895       -2.4355668378
 C          9.3752366175       -1.3702497108        0.7991077810
 H          9.3852794901       -0.5327007139        1.4931939036
 H         10.3999935273       -1.6924275960        0.6382699147
 H          8.8341943040       -2.1924661057        1.2592091730
 C          9.6362235698        0.1274681572       -1.1711132743
 H         10.6341648247       -0.2732771791       -1.3265219984
 H          9.7285726081        0.9941683303       -0.5203981396
 H          9.2527043074        0.4381171236       -2.1405563270
 C         -0.0251888563       -0.5549275281        1.8452366592
 H         -0.4551562628       -0.0055085970        2.6822742369
 H          0.3876657623       -1.4819180744        2.2421695551
 H          0.3247749047       -2.1415956450       -0.2206657253
 C         -0.6886282601       -1.7685049778       -0.2043198408
 C         -3.3081686655       -0.8099314347       -0.1638544505
 C         -1.5692733786       -2.1744863220       -1.1799164850
 C         -1.0706620685       -0.9003052311        0.8191441258
 C         -2.3968066402       -0.3928651996        0.8466372190
 C         -2.9004233405       -1.7098430297       -1.1815492980
 C         -4.6383943181       -0.3328716235       -0.1640825488
 C         -7.3186109285        0.6462901883       -0.1674910080
 C         -5.5534200166       -0.7491793096       -1.1626419473
 C         -5.0829207039        0.5678520473        0.8326403142
 C         -6.4143411690        1.0391924011        0.8100303327
 C         -6.8716374377       -0.2505433631       -1.1389145314
 H         -6.7133443886        1.7244293402        1.5869482251
 H         -7.5462008019       -0.5875934059       -1.9114591952
 C         -2.8751845688        0.5061944318        1.8323136787
 H         -2.2187287259        0.8436086580        2.6194784479
 C         -4.1655754285        0.9697811610        1.8264079961
 H         -4.4944226322        1.6532146374        2.5951028337
 C         -3.8277403654       -2.1177828500       -2.1654601648
 H         -3.5027147559       -2.8079899012       -2.9294570396
 C         -5.1192914673       -1.6532458786       -2.1577051492
 H         -5.8175068707       -1.9756841901       -2.9154690130
 C         -8.7487815495        1.1479045338       -0.2189588017
 C         -9.0699598229        2.1229577220        0.9145666013
 H         -8.9597838594        1.6495312440        1.8876671428
 H        -10.1020681375        2.4501598546        0.8238845223
 H         -8.4393185290        3.0081065329        0.8663494027
 C         -9.6991181356       -0.0551564101       -0.1134521064
 H         -9.5723153973       -0.7482325926       -0.9404293371
 H        -10.7276424724        0.2939313246       -0.1246161279
 H         -9.5303184376       -0.5937513984        0.8164973454
 C         -8.9674968573        1.8679614831       -1.5592053736
 H         -9.9816366226        2.2546113312       -1.6016587944
 H         -8.8276362327        1.2022282677       -2.4063938274
 H         -8.2779463601        2.7034447215       -1.6601360512
 H         -1.2497202189       -2.8586427056       -1.9512288981
