77
       -105.32450230
 H         -0.3358995485        1.8977537512        1.0279784251
 C          0.6804557729        1.5719417185        0.8626159023
 C          3.3090335038        0.7410413518        0.4353393651
 C          1.0387127589        0.2740537908        1.2200349754
 C          1.5886426677        2.4552512638        0.3213885483
 C          2.9227366389        2.0635946429        0.0991655582
 C          2.3714229985       -0.1704501048        0.9971514353
 H          1.2848757839        3.4596029030        0.0680113949
 C          4.6446158305        0.3388206546        0.2073963918
 C          7.3378283387       -0.4781044564       -0.2660633662
 C          5.0664450490       -0.9723587483        0.5278360997
 C          5.5875180882        1.2418276303       -0.3452867095
 C          6.9134144122        0.8112788412       -0.5686972220
 C          6.4031524231       -1.3523206564        0.2842233031
 H          7.6024761255        1.5254615927       -0.9903636459
 H          6.6912512972       -2.3607334792        0.5402874337
 C          3.8774170485        2.9513222914       -0.4461682789
 H          3.5689400702        3.9565670354       -0.6913492000
 C          5.1735994132        2.5542417583       -0.6614724054
 H          5.8916922536        3.2452877265       -1.0767738275
 C          2.8275259716       -1.4742697997        1.3100778986
 H          2.1501945927       -2.1948632616        1.7417038010
 C          4.1234027649       -1.8625578351        1.0845932035
 H          4.4357378589       -2.8648563515        1.3375016160
 C          8.7561793552       -0.9558396296       -0.5133153379
 C          9.3696603624       -1.4018157034        0.8228795199
 H         10.3951071603       -1.7219202172        0.6623697139
 H          8.8250082415       -2.2322306549        1.2635738386
 H          9.3760700871       -0.5778595871        1.5331003193
 C          9.6455419831        0.1324116511       -1.1168865745
 H          9.2693570937        0.4613852649       -2.0831565517
 H         10.6439941591       -0.2669162012       -1.2726070668
 H          9.7344563853        0.9869286288       -0.4497652380
 C          8.7090199178       -2.1432331499       -1.4881067457
 H          8.1512287974       -2.9817052661       -1.0801038125
 H          9.7197519967       -2.4826488149       -1.6953865931
 H          8.2482444126       -1.8467146219       -2.4280026646
 C         -0.0343141821       -0.5868807191        1.8311161663
 H         -0.4664732675       -0.0514550382        2.6760700700
 H          0.3746906687       -1.5218119995        2.2131454698
 H          0.3220883852       -2.1338431254       -0.2634395135
 C         -0.6909913352       -1.7600225054       -0.2439074354
 C         -3.3097652815       -0.7997035235       -0.1951229333
 C         -1.5681410051       -2.1459805080       -1.2307216507
 C         -1.0762051791       -0.9113825443        0.7946532084
 C         -2.4020230500       -0.4033429191        0.8268987785
 C         -2.8987854514       -1.6798963309       -1.2286444620
 C         -4.6395601148       -0.3214633224       -0.1912273994
 C         -7.3189539151        0.6599597484       -0.1858277586
 C         -5.5509258735       -0.7170016365       -1.2015122565
 C         -5.0872998747        0.5597538942        0.8213642081
 C         -6.4182882589        1.0324942067        0.8029346346
 C         -6.8687527117       -0.2175599545       -1.1732518879
 H         -6.7198692527        1.7022857812        1.5922189574
 H         -7.5403897131       -0.5382973268       -1.9552362799
 C         -2.8834927343        0.4766777287        1.8281175809
 H         -2.2297734206        0.7981602020        2.6241799356
 C         -4.1735337110        0.9412741290        1.8264027150
 H         -4.5048332697        1.6097264507        2.6071228049
 C         -3.8225109455       -2.0673705988       -2.2241482560
 H         -3.4950457421       -2.7427524979       -3.0002602391
 C         -5.1136001201       -1.6016478324       -2.2125024955
 H         -5.8090207315       -1.9082939078       -2.9793343526
 C         -8.7484960901        1.1639634506       -0.2331134329
 C         -9.7005965787       -0.0399322423       -0.1584228362
 H         -9.5365083907       -0.5992389349        0.7600585970
 H         -9.5711184250       -0.7146486292       -1.0000382102
 H        -10.7286844435        0.3105806529       -0.1662793759
 C         -8.9597772079        1.9133650704       -1.5583648787
 H         -9.9735430960        2.3013642647       -1.5977295117
 H         -8.8156222012        1.2662370611       -2.4191507287
 H         -8.2693894430        2.7505045787       -1.6372894571
 C         -9.0740950708        2.1144291710        0.9199195703
 H         -8.9683382442        1.6198679297        1.8829364655
 H        -10.1056618499        2.4440861167        0.8318833003
 H         -8.4428800503        3.0000673963        0.8936277151
 H         -1.2461967038       -2.8153368984       -2.0139342570
