77
       -105.32633110
 H         -0.3002860462        1.8500841255       -0.9457302220
 C          0.6765096069        1.4730687437       -0.6823435176
 C          3.2207934477        0.5355030561       -0.0079799109
 C          1.0707749944        0.2230774800       -1.1443137074
 C          1.5067667859        2.2530441884        0.0978085584
 C          2.7926626521        1.8063613945        0.4539681545
 C          2.3674469345       -0.2672520015       -0.8108773396
 H          1.1733554867        3.2220433025        0.4373795883
 C          4.5131191416        0.0779260309        0.3335733619
 C          7.1213532112       -0.8459800276        1.0248940421
 C          4.9723739288       -1.1805199875       -0.1186483232
 C          5.3734101207        0.8743006050        1.1307491618
 C          6.6594161687        0.3917451019        1.4585409068
 C          6.2669802806       -1.6148099568        0.2368652286
 H          7.2866856806        1.0234873073        2.0668921553
 H          6.5879564133       -2.5799408680       -0.1250333113
 C          3.6651510133        2.5869936653        1.2459975804
 H          3.3283371322        3.5537546409        1.5891888524
 C          4.9189611528        2.1350821605        1.5758538904
 H          5.5735612065        2.7444579984        2.1807736496
 C          2.8555272785       -1.5205555178       -1.2514957542
 H          2.2346420011       -2.1506041269       -1.8686731431
 C          4.1115196798       -1.9619940193       -0.9190097162
 H          4.4548117742       -2.9224585370       -1.2734486737
 C          8.4985992121       -1.3781970256        1.3732145134
 C          9.2774658955       -1.6188283615        0.0707684276
 H          9.3677691721       -0.6947320931       -0.4960528931
 H          8.7975581982       -2.3633212504       -0.5585002403
 H         10.2766336164       -1.9738519959        0.3061967522
 C          8.3358407202       -2.7017839769        2.1368290880
 H          9.3144230411       -3.0832678343        2.4136265796
 H          7.8391720515       -3.4592499516        1.5367276104
 H          7.7587443799       -2.5489812657        3.0463005792
 C          9.2982544606       -0.4096324505        2.2461631225
 H          9.4694377891        0.5353901838        1.7354786559
 H         10.2696527095       -0.8442732068        2.4653668656
 H          8.7989684404       -0.2265117772        3.1951213955
 C          0.1615638226       -0.5964459397       -2.0199509697
 H          0.0643523832       -1.6005233004       -1.5958276567
 H          0.6539304270       -0.7073946434       -2.9920829852
 H         -0.6930870761        0.6973590196       -4.1934769032
 C         -1.4817629483        0.5983145643       -3.4624519406
 C         -3.5378717061        0.3323668252       -1.5912151998
 C         -2.7380098123        1.0808707093       -3.7629267281
 C         -1.2062015924       -0.0247945409       -2.2477413005
 C         -2.2378920021       -0.1440280367       -1.2758984394
 C         -3.7984302761        0.9467652750       -2.8432937473
 C         -4.5903239321        0.1911468587       -0.6597380171
 C         -6.7179939458       -0.1294227631        1.2107200487
 C         -5.8950899035        0.6446437986       -0.9746499534
 C         -4.3606733124       -0.4113625379        0.5994944767
 C         -5.4314469911       -0.5577784624        1.5095891597
 C         -6.9285841425        0.4716214016       -0.0311412525
 H         -5.2179920573       -1.0231100901        2.4584978404
 H         -7.9136478990        0.8223069981       -0.2995260666
 C         -2.0317037275       -0.7229304191       -0.0000223746
 H         -1.0468818244       -1.0672956122        0.2752275361
 C         -3.0544443808       -0.8506877209        0.9046540040
 H         -2.8675169776       -1.2998241528        1.8687161326
 C         -5.1032085971        1.4019547427       -3.1350890866
 H         -5.2884629442        1.8689190663       -4.0908212519
 C         -6.1249812927        1.2526174651       -2.2290896759
 H         -7.1185769627        1.5997622334       -2.4700655330
 C         -7.8843232309       -0.2908892737        2.1669218228
 C         -8.4575500090        1.0980626346        2.4882771338
 H         -7.6957907847        1.7299893215        2.9399079984
 H         -9.2786665225        0.9967370029        3.1920808835
 H         -8.8378816765        1.5972769077        1.6015425861
 C         -7.4777465733       -0.9649922991        3.4782917269
 H         -6.7363955627       -0.3759898226        4.0139368306
 H         -7.0914882589       -1.9671643881        3.3057131463
 H         -8.3505467454       -1.0556455329        4.1189628299
 C         -8.9586447341       -1.1534668140        1.4862677988
 H         -9.3429285796       -0.6878965648        0.5830143515
 H         -9.7919771367       -1.2987018848        2.1676973099
 H         -8.5552620833       -2.1296325142        1.2257495771
 H         -2.9231905820        1.5549923274       -4.7148114731
