77
       -105.32440569
 H         -0.3601770248        1.5933825652        1.4820617641
 C          0.6561486293        1.3104571748        1.2509229089
 C          3.2827847154        0.5806221597        0.6591448562
 C          1.0561632434        1.2656154051       -0.0851297512
 C          1.5225127874        1.0211126230        2.2794463624
 C          2.8565106395        0.6528464692        2.0100215623
 C          2.3867931820        0.8850883449       -0.4039259847
 H          1.1891048924        1.0783762687        3.3044666426
 C          4.6159771996        0.2034232847        0.3809285248
 C          7.3013421480       -0.5755065014       -0.1885906663
 C          5.0791240262        0.1183379999       -0.9534623143
 C          5.5152422719       -0.0960318229        1.4341927966
 C          6.8363000251       -0.4770698376        1.1235635025
 C          6.4128527876       -0.2694689813       -1.2106262018
 H          7.4984080982       -0.6974611668        1.9472772303
 H          6.7264044760       -0.3219970145       -2.2409041135
 C          3.7686900407        0.3572616097        3.0468342197
 H          3.4297431642        0.4236000131        4.0697878953
 C          5.0628651416       -0.0062513950        2.7695749960
 H          5.7491916730       -0.2280894576        3.5729523783
 C          2.8842844327        0.7965235344       -1.7280692969
 H          2.2409003222        1.0271427429       -2.5630992987
 C          4.1776541363        0.4269728737       -1.9940014273
 H          4.5212352702        0.3717328710       -3.0162641025
 C          8.7330057658       -1.0075078680       -0.4406570252
 C          9.6796521885       -0.0090130550        0.2436616074
 H          9.5381910159        0.0142264285        1.3205765683
 H          9.5221648049        0.9941977847       -0.1463591597
 H         10.7093658512       -0.2941561648        0.0480797969
 C          9.0761574457       -1.0613662793       -1.9300175181
 H          8.9779982883       -0.0828362535       -2.3947970910
 H          8.4495755594       -1.7789755982       -2.4553006431
 H         10.1085036027       -1.3788324510       -2.0484213492
 C          8.9334876429       -2.4090124798        0.1578360085
 H          8.7755533105       -2.4186815683        1.2327715334
 H          9.9489910266       -2.7432612327       -0.0340661634
 H          8.2471558032       -3.1198312759       -0.2975439448
 C          0.0233757296        1.6276961692       -1.1184632485
 H          0.4682383334        1.7282505299       -2.1079761951
 H         -0.4061654893        2.5935374872       -0.8543762189
 H          0.3710106880       -0.8145475478       -2.0281756205
 C         -0.6479306039       -0.6802367641       -1.6963180476
 C         -3.2825715822       -0.3434111091       -0.8436129451
 C         -1.5356674145       -1.7269545781       -1.8158131811
 C         -1.0300767505        0.5536816854       -1.1748943723
 C         -2.3667031827        0.7394982247       -0.7250688948
 C         -2.8720407913       -1.5833088479       -1.3963285716
 C         -4.6204626069       -0.1951738602       -0.4128106340
 C         -7.3171687504        0.0985250152        0.4739422899
 C         -5.5414075263       -1.2664637079       -0.5317553299
 C         -5.0664753644        1.0256216870        0.1444462154
 C         -6.4045801949        1.1462092381        0.5750792469
 C         -6.8694915343       -1.0936923330       -0.0849957225
 H         -6.7116775589        2.0920628286        0.9952189618
 H         -7.5413111608       -1.9304056756       -0.1909644706
 C         -2.8474141879        1.9499499700       -0.1686233934
 H         -2.1880644902        2.7981880286       -0.0682484345
 C         -4.1455689559        2.0897169478        0.2511394076
 H         -4.4769360511        3.0285730389        0.6693208659
 C         -3.8054816570       -2.6377879175       -1.5130047045
 H         -3.4788511540       -3.5732357768       -1.9420014416
 C         -5.1037710734       -2.4853579812       -1.0943282054
 H         -5.8053159069       -3.3002279341       -1.1917720905
 C         -8.7378534377        0.2915286744        0.9693778176
 C         -9.5995223441       -0.9584675484        0.7833410498
 H         -9.1997010269       -1.8022683708        1.3415418722
 H         -9.6892451856       -1.2255224587       -0.2672547948
 H        -10.6003888536       -0.7622510263        1.1580197125
 C         -9.3817307929        1.4485761762        0.1900220906
 H         -9.3891412092        1.2323495658       -0.8760632539
 H         -8.8568594920        2.3867452494        0.3475573714
 H        -10.4085834454        1.5802657819        0.5186597548
 C         -8.6915724769        0.6330426455        2.4671925914
 H         -8.2086571849       -0.1660793709        3.0256228544
 H         -9.7035789700        0.7496883251        2.8440076196
 H         -8.1551634467        1.5588274685        2.6564174144
 H         -1.2136599471       -2.6668997808       -2.2377280286
