77
       -105.32424894
 H          1.4265001117        4.9929174798        0.0648970794
 C          1.9901012592        4.0717510385        0.0716484532
 C          3.4747152420        1.7043496908        0.1025159386
 C          1.3429052226        2.8801485524        0.3761784232
 C          3.3408834572        4.1109330798       -0.2157167625
 C          4.1142931455        2.9339480857       -0.2008376605
 C          2.0843440562        1.6637387104        0.3845998673
 H          3.8167366731        5.0517674589       -0.4476595635
 C          4.2387244402        0.5165008665        0.1314576103
 C          5.7837116215       -1.8782223206        0.2115653510
 C          3.6282510842       -0.7215512613        0.4359064343
 C          5.6306607893        0.5471275971       -0.1360866418
 C          6.3717151026       -0.6541707372       -0.0896281937
 C          4.4150660279       -1.8917953468        0.4697232960
 H          7.4283684116       -0.5949804098       -0.2960721027
 H          3.9198468988       -2.8206777541        0.7091695393
 C          5.5014176815        2.9438366082       -0.4706625341
 H          5.9786124487        3.8847380409       -0.7006348783
 C          6.2392946762        1.7850169480       -0.4383269635
 H          7.2991534973        1.8119245510       -0.6428674773
 C          1.4986567336        0.4099320891        0.6782397671
 H          0.4418299308        0.3532343906        0.8887693003
 C          2.2418079973       -0.7417985701        0.7022322534
 H          1.7686488616       -1.6845299203        0.9335734828
 C          6.5666008635       -3.1766541769        0.2711313496
 C          5.9740209306       -4.1574883827       -0.7525315609
 H          6.5422028481       -5.0830863515       -0.7386038758
 H          6.0263354924       -3.7397927218       -1.7556434188
 H          4.9374338496       -4.3982736703       -0.5327724420
 C          6.4410402307       -3.7601903624        1.6870753121
 H          6.8293761785       -3.0604173927        2.4237872597
 H          7.0164867047       -4.6790439563        1.7531016073
 H          5.4103053800       -3.9915394205        1.9417438383
 C          8.0501631245       -2.9818408647       -0.0449949169
 H          8.5250531749       -2.3182725777        0.6740969250
 H          8.1935694729       -2.5927328907       -1.0505716712
 H          8.5564518271       -3.9416034770        0.0107822703
 C         -0.1128599390        2.8905139544        0.7425639309
 H         -0.4657661627        3.9274293132        0.7658029025
 H         -0.2095550086        2.4965409032        1.7566835040
 H          0.2230180036        2.6726752442       -1.8845768886
 C         -0.6582133416        2.1362201146       -1.5654143427
 C         -2.9477245147        0.7603514068       -0.7530203483
 C         -1.4271739157        1.4847233662       -2.5055537016
 C         -0.9914608326        2.1328822616       -0.2130888421
 C         -2.1698853107        1.4550833035        0.2135489108
 C         -2.5807784587        0.7733114845       -2.1230800670
 C         -4.1040842922        0.0504213533       -0.3584127377
 C         -6.4050216013       -1.4308364634        0.4474269953
 C         -4.8819022411       -0.6516334039       -1.3133248684
 C         -4.5071452750        0.0286115813        0.9968548354
 C         -5.6492521209       -0.7107775757        1.3700344552
 C         -6.0149088586       -1.3780925360       -0.8864600733
 H         -5.9283235822       -0.7079378864        2.4128818300
 H         -6.5798753882       -1.9042259501       -1.6392310605
 C         -2.6176068891        1.4403960814        1.5567682256
 H         -2.0746397749        1.9875881296        2.3115453243
 C         -3.7438187786        0.7550779955        1.9357456387
 H         -4.0568841178        0.7659618985        2.9690883102
 C         -3.3802485296        0.0856547583       -3.0634758993
 H         -3.0963150045        0.1154032872       -4.1047799754
 C         -4.4972555780       -0.6098742197       -2.6713311867
 H         -5.0953694393       -1.1330962253       -3.4022237321
 C         -7.5997450410       -2.2349272140        0.9239947993
 C         -8.6032891927       -1.2859831862        1.5961370229
 H         -8.1792782419       -0.7969086368        2.4687788959
 H         -9.4744131500       -1.8488817917        1.9187350475
 H         -8.9311114205       -0.5199666799        0.8968789241
 C         -7.1080969842       -3.2798925532        1.9384775245
 H         -6.3738013142       -3.9396975500        1.4810303294
 H         -7.9469307884       -3.8830595783        2.2734748880
 H         -6.6584467219       -2.8169289389        2.8126691581
 C         -8.3089637142       -2.9649379704       -0.2178284792
 H         -7.6443666516       -3.6718989926       -0.7098012451
 H         -8.7045432737       -2.2651752614       -0.9505154468
 H         -9.1472339230       -3.5278542491        0.1834127798
 H         -1.1488746356        1.5156115317       -3.5480716856
