77
       -105.32420470
 H         -0.3579529826        2.0322115287        1.0569960284
 C          0.6492768947        1.6831594454        0.8843525813
 C          3.2509731338        0.7861267734        0.4293330539
 C          1.0192871996        0.4258764786        1.3627135593
 C          1.5336532376        2.4952648181        0.2130131047
 C          2.8550313901        2.0682694325       -0.0301029130
 C          2.3384542486       -0.0482948115        1.1341046949
 H          1.2234045229        3.4697721600       -0.1322244590
 C          4.5705614307        0.3466126890        0.1790840863
 C          7.2237374277       -0.5599746565       -0.3509527027
 C          5.0040298805       -0.9260526987        0.6203883923
 C          5.4852205849        1.1728097394       -0.5198420238
 C          6.7900321670        0.6998377290       -0.7661872917
 C          6.3223575745       -1.3530525244        0.3462920822
 H          7.4648206150        1.3529379657       -1.2987099971
 H          6.6133060655       -2.3293433792        0.6995028716
 C          3.7837360298        2.8824478825       -0.7149524757
 H          3.4685784696        3.8594370336       -1.0494417058
 C          5.0639350181        2.4493260822       -0.9544577724
 H          5.7626897556        3.0826060101       -1.4801600546
 C          2.8092607506       -1.3099944352        1.5758661127
 H          2.1566403229       -1.9653860371        2.1316837387
 C          4.0891701504       -1.7346158377        1.3273566403
 H          4.4118081141       -2.7031756423        1.6794192384
 C          8.6370742201       -1.0045544867       -0.6743657693
 C          8.9454986212       -2.4074345579       -0.1494055319
 H          9.9649778558       -2.6731367553       -0.4151091996
 H          8.2861801547       -3.1502524269       -0.5933340842
 H          8.8664431663       -2.4512071689        0.9345466453
 C          9.6260795243       -0.0154566860       -0.0379260243
 H          9.5093665803        0.9893406060       -0.4341911151
 H         10.6428099364       -0.3389082504       -0.2416470242
 H          9.4878988619        0.0210363161        1.0404424339
 C          8.8113512585       -1.0051319155       -2.2014948830
 H          8.6765687917       -0.0143756944       -2.6267064128
 H          8.0956653574       -1.6797374076       -2.6667226912
 H          9.8126909951       -1.3432250401       -2.4520883588
 C         -0.0336351045       -0.3651176573        2.0925902839
 H         -0.4855072079        0.2737205158        2.8504851465
 H          0.3978478622       -1.2252775582        2.6031339873
 H          0.3358641771       -2.2719754485        0.3171516024
 C         -0.6673720749       -1.8796031456        0.2415479602
 C         -3.2584553034       -0.8673511689        0.0361984330
 C         -1.5259470143       -2.4116297168       -0.6923310058
 C         -1.0589604864       -0.8565379823        1.1055473367
 C         -2.3729158295       -0.3257994177        1.0099519705
 C         -2.8414054852       -1.9203599958       -0.8176071725
 C         -4.5719688427       -0.3618951453       -0.0914932636
 C         -7.2122175975        0.6850286616       -0.3657636055
 C         -5.4598753406       -0.8976783168       -1.0570288939
 C         -5.0259101256        0.6885388702        0.7408822473
 C         -6.3373512952        1.1902889223        0.5865647649
 C         -6.7589237979       -0.3621420824       -1.1692607076
 H         -6.6444848275        1.9909037003        1.2401995309
 H         -7.4132136785       -0.7927002321       -1.9122175335
 C         -2.8641309714        0.7143661183        1.8378788816
 H         -2.2327392274        1.1393118863        2.6028301087
 C         -4.1379583419        1.2050059244        1.7080166141
 H         -4.4766833956        1.9989139199        2.3569594407
 C         -3.7438554393       -2.4495250858       -1.7662723695
 H         -3.4131046260       -3.2572647857       -2.4017850210
 C         -5.0183005680       -1.9539344830       -1.8847959566
 H         -5.6968613911       -2.3680155807       -2.6153824602
 C         -8.6171737369        1.2205303399       -0.5634655455
 C         -9.6201548216        0.0797683113       -0.3306723220
 H         -9.5154745344       -0.3204274777        0.6754045698
 H         -9.4856705127       -0.7321419672       -1.0398846721
 H        -10.6317811399        0.4586206001       -0.4444560451
 C         -8.7437406341        1.7390553123       -2.0048573231
 H         -9.7386066425        2.1474563861       -2.1572873204
 H         -8.5903576358        0.9500553927       -2.7359682727
 H         -8.0175796247        2.5274318918       -2.1916442885
 C         -8.9494616568        2.3644796442        0.3955629265
 H         -8.9044936280        2.0382453991        1.4322253572
 H         -9.9615881941        2.7099937768        0.2038487118
 H         -8.2806694415        3.2101287709        0.2501402192
 H         -1.1997822695       -3.2133720165       -1.3372602200
