77
       -105.32414959
 H         -0.3814539229        1.3716199699        1.7895084597
 C          0.6309098400        1.1210855168        1.5092486558
 C          3.2460315859        0.4677893761        0.7915204823
 C          1.0459665576        1.3560972902        0.1980666823
 C          1.4776608815        0.5948441859        2.4570478499
 C          2.8049954124        0.2570341735        2.1229991828
 C          2.3720278110        1.0218913729       -0.1855656397
 H          1.1332204353        0.4384695763        3.4679959374
 C          4.5718294574        0.1209672868        0.4464412484
 C          7.2386425220       -0.6037626820       -0.2641378672
 C          5.0495685828        0.3148564522       -0.8713159326
 C          5.4485989658       -0.4282141005        1.4146332219
 C          6.7610781200       -0.7757114345        1.0358760743
 C          6.3737539679       -0.0515995835       -1.1993908624
 H          7.4061566298       -1.1900387026        1.7959200005
 H          6.6989451291        0.1120664149       -2.2142880917
 C          3.6960366709       -0.2819020815        3.0769340535
 H          3.3466557495       -0.4276994611        4.0880682580
 C          4.9827275838       -0.6157133017        2.7351399957
 H          5.6525563791       -1.0269692984        3.4753175758
 C          2.8860911544        1.2156604993       -1.4920474028
 H          2.2626678430        1.6491887321       -2.2587114483
 C          4.1719702184        0.8742622726       -1.8239292547
 H          4.5283055003        1.0367988846       -2.8302854722
 C          8.6578398063       -1.0217775723       -0.5971822498
 C          9.6296437022       -0.2283819453        0.2902597764
 H          9.4762412631       -0.4324301899        1.3462504877
 H          9.5109573053        0.8402101019        0.1248928109
 H         10.6513039132       -0.5013983051        0.0421928345
 C          9.0164945557       -0.7662348855       -2.0617213634
 H          8.9586293036        0.2923612753       -2.3049520090
 H          8.3710471488       -1.3300982637       -2.7317874066
 H         10.0382423045       -1.0889455909       -2.2418005443
 C          8.8034409437       -2.5254789711       -0.3138681391
 H          8.6325043125       -2.7606008400        0.7330545798
 H          9.8091752147       -2.8467869716       -0.5689128084
 H          8.0987562857       -3.0966794886       -0.9145923753
 C          0.0324559030        1.9496520569       -0.7437580860
 H          0.4974838005        2.2812973692       -1.6713723160
 H         -0.4127051440        2.8237110416       -0.2699339813
 H          0.4015900776       -0.1717830385       -2.2563243489
 C         -0.6149831303       -0.1423664502       -1.8930969506
 C         -3.2423152616       -0.0801521981       -0.9582950920
 C         -1.4890866139       -1.1390979859       -2.2679414566
 C         -1.0079808658        0.9116485668       -1.0716843438
 C         -2.3420402984        0.9550572748       -0.5796208602
 C         -2.8210993396       -1.1314557797       -1.8119260620
 C         -4.5752165996       -0.0722844656       -0.4883516661
 C         -7.2586484837       -0.0713415280        0.4831585851
 C         -5.4800857683       -1.0974310849       -0.8628286334
 C         -5.0319008949        0.9588133305        0.3649038861
 C         -6.3631754469        0.9373236378        0.8315802217
 C         -6.8019430826       -1.0722437949       -0.3676002804
 H         -6.6787144896        1.7397621995        1.4811932982
 H         -7.4614424996       -1.8686273457       -0.6733564046
 C         -2.8352569589        1.9793684278        0.2650322204
 H         -2.1905804957        2.7918754304        0.5625607107
 C         -4.1283234256        1.9823390306        0.7221965530
 H         -4.4692382863        2.7804353618        1.3648284752
 C         -3.7396107335       -2.1393300670       -2.1825313982
 H         -3.4054741912       -2.9279519694       -2.8399604201
 C         -5.0327690051       -2.1242543499       -1.7226178692
 H         -5.7226511395       -2.9014965932       -2.0152344711
 C         -8.6710543375       -0.0437305981        1.0357636344
 C         -9.3532891021        1.2591016242        0.5911844096
 H         -9.3803349919        1.3238555104       -0.4943590763
 H         -8.8426853902        2.1375064112        0.9760557953
 H        -10.3748763176        1.2776627509        0.9596729493
 C         -8.5958657249       -0.0965061414        2.5700288381
 H         -8.0871806493       -1.0013623831        2.8958360159
 H         -9.6006599713       -0.1022650130        2.9824607576
 H         -8.0702687386        0.7613166083        2.9805771167
 C         -9.5145106255       -1.2239505963        0.5507194206
 H         -9.6233128091       -1.2152989900       -0.5314999014
 H        -10.5099156515       -1.1531176715        0.9805631417
 H         -9.0872778726       -2.1731022656        0.8670173546
 H         -1.1590842479       -1.9346323084       -2.9186507854
