77
       -105.32414849
 H          1.4599847793        5.0205331009        0.1206440142
 C          2.0085596517        4.0903036241        0.1211409361
 C          3.4497841478        1.6960957825        0.1374302114
 C          1.3386697124        2.9053834374        0.4128774884
 C          3.3589259212        4.1087389688       -0.1599988965
 C          4.1125816891        2.9167298656       -0.1526870064
 C          2.0577219757        1.6780880340        0.4136851493
 H          3.8529246381        5.0426258799       -0.3816806352
 C          4.1921778645        0.4946269070        0.1590995868
 C          5.6878150739       -1.9314986255        0.2261470567
 C          3.5599799031       -0.7364721025        0.4506635033
 C          5.5846454456        0.5044454594       -0.1030861550
 C          6.2993245780       -0.7103403700       -0.0625714837
 C          4.3227087156       -1.9249157284        0.4779696820
 H          7.3594706447       -0.6733526682       -0.2627592642
 H          3.8055217353       -2.8427729223        0.7069432049
 C          5.4998743139        2.9058751389       -0.4171193422
 H          5.9940415334        3.8403937799       -0.6369102660
 C          6.2174176739        1.7342326504       -0.3923917123
 H          7.2783482627        1.7442432092       -0.5928552064
 C          1.4500710136        0.4310301488        0.6949736767
 H          0.3918885661        0.3908152869        0.9022248854
 C          2.1728767779       -0.7334337697        0.7115590729
 H          1.6824897877       -1.6695968825        0.9334910885
 C          6.5235922453       -3.1969768811        0.2551687567
 C          5.6947285091       -4.4388419677        0.5878949755
 H          4.9209675955       -4.6107836774       -0.1573102432
 H          5.2407665293       -4.3602526843        1.5733343043
 H          6.3437136821       -5.3101533802        0.5941992649
 C          7.6167386176       -3.0389879950        1.3234204883
 H          8.2895759645       -2.2161743759        1.0990556185
 H          8.2073935412       -3.9491629688        1.3743454566
 H          7.1723675415       -2.8641900370        2.3008941655
 C          7.1670410848       -3.3943397906       -1.1259649646
 H          7.8321190993       -2.5757135798       -1.3860563867
 H          6.4019446067       -3.4745736855       -1.8953234476
 H          7.7496509615       -4.3110724989       -1.1265880212
 C         -0.1189348946        2.9392259297        0.7711297277
 H         -0.4550684637        3.9816280114        0.7929345467
 H         -0.2281534671        2.5458226407        1.7839297944
 H          0.1913327737        2.8025429576       -1.8594175438
 C         -0.6797818110        2.2449099638       -1.5488668208
 C         -2.9415554455        0.8128007916       -0.7568168639
 C         -1.4486356420        1.6114024932       -2.5010635400
 C         -1.0004372988        2.1972772609       -0.1941502060
 C         -2.1648711250        1.4902443867        0.2230762534
 C         -2.5884405763        0.8724683323       -2.1292766143
 C         -4.0826101332        0.0727949100       -0.3729637111
 C         -6.3493596961       -1.4722492194        0.4099262547
 C         -4.8587326278       -0.6126586596       -1.3412377717
 C         -4.4714828767        0.0030154304        0.9848328384
 C         -5.5967536214       -0.7671838816        1.3465322763
 C         -5.9746813150       -1.3713025364       -0.9256362976
 H         -5.8649715650       -0.8008660345        2.3916831559
 H         -6.5387321610       -1.8835398266       -1.6886092373
 C         -2.5995530501        1.4280877418        1.5692950520
 H         -2.0582656165        1.9608786797        2.3355611702
 C         -3.7107776022        0.7134759226        1.9379849857
 H         -4.0137103020        0.6882055430        2.9740922792
 C         -3.3869818779        0.2017145645       -3.0825126085
 H         -3.1142118280        0.2677935036       -4.1251262508
 C         -4.4890582106       -0.5229908207       -2.7010660624
 H         -5.0864857691       -1.0329738396       -3.4418087790
 C         -7.5237287642       -2.3129825813        0.8736598759
 C         -8.5365707168       -1.4051840163        1.5873053773
 H         -8.8863519714       -0.6231438024        0.9170344914
 H         -8.1115930582       -0.9368623712        2.4707873248
 H         -9.3935174512       -1.9943460649        1.9008505742
 C         -7.0008057222       -3.3804637319        1.8483439816
 H         -6.5489283104       -2.9372113332        2.7315681162
 H         -6.2603106498       -4.0116525412        1.3614420039
 H         -7.8243759873       -4.0094297832        2.1736190533
 C         -8.2327954973       -3.0193512280       -0.2830300534
 H         -9.0560179878       -3.6101236605        0.1092178540
 H         -7.5612670565       -3.6979392171       -0.8046544380
 H         -8.6494469699       -2.3040826743       -0.9885529206
 H         -1.1808795895        1.6772751039       -3.5447136748
