77
       -105.32407968
 H         -0.3708574708        1.7244747408        1.4869146232
 C          0.6380178288        1.4177367274        1.2540022599
 C          3.2438621786        0.6192974667        0.6602152215
 C          1.0446038408        1.3917663701       -0.0804198498
 C          1.4888265223        1.0790574433        2.2805208531
 C          2.8115394669        0.6731575740        2.0100092068
 C          2.3661345058        0.9810498685       -0.4001333990
 H          1.1510334684        1.1237884772        3.3047373559
 C          4.5647222798        0.2019261991        0.3805099216
 C          7.2204324989       -0.6698368647       -0.1932607323
 C          5.0338099048        0.1340983260       -0.9527721316
 C          5.4450432107       -0.1572312267        1.4311152830
 C          6.7519214094       -0.5828625474        1.1184564011
 C          6.3526283389       -0.3004290092       -1.2121092373
 H          7.3999394716       -0.8479722921        1.9401947778
 H          6.6712493681       -0.3382286672       -2.2414757559
 C          3.7063815990        0.3221104091        3.0446351057
 H          3.3639210826        0.3776874395        4.0670609035
 C          4.9881281734       -0.0819209840        2.7658425391
 H          5.6608672398       -0.3476438101        3.5673944286
 C          2.8722149578        0.9166924687       -1.7224011653
 H          2.2465663757        1.2010203649       -2.5543175831
 C          4.1532541953        0.5074042630       -1.9899865649
 H          4.5034525963        0.4709375627       -3.0108550807
 C          8.6333746109       -1.1580197592       -0.4483081079
 C          8.9822787138       -1.1933862573       -1.9368786540
 H          8.9316298520       -0.2010522856       -2.3794148487
 H          8.3265070671       -1.8693598009       -2.4814563994
 H          9.9996744322       -1.5550832126       -2.0577851821
 C          8.7683954998       -2.5802167423        0.1188951981
 H          8.6035975196       -2.6072880771        1.1925192560
 H          9.7693320568       -2.9546007592       -0.0754001719
 H          8.0541968610       -3.2495738400       -0.3560908025
 C          9.6190980539       -0.2180447700        0.2631558435
 H          9.4726936261       -0.2131195466        1.3396400118
 H          9.5081093550        0.7997233864       -0.1044641408
 H         10.6363306971       -0.5438673061        0.0658180404
 C          0.0270215261        1.7964042523       -1.1137490158
 H          0.4882671824        1.9468113662       -2.0890513824
 H         -0.4177478212        2.7438214288       -0.8118708350
 H          0.3891860581       -0.5677405217       -2.2118603159
 C         -0.6236928454       -0.4735304755       -1.8494144744
 C         -3.2410129778       -0.2455312974       -0.9125237682
 C         -1.4970627950       -1.5248293551       -2.0226283923
 C         -1.0128494795        0.7139168659       -1.2341495485
 C         -2.3421705427        0.8451248766       -0.7446846787
 C         -2.8238797386       -1.4363272381       -1.5601230532
 C         -4.5684091972       -0.1546154519       -0.4357735978
 C         -7.2392108320        0.0171836201        0.5550980223
 C         -5.4714490990       -1.2351232990       -0.6000866460
 C         -5.0212151543        1.0163875278        0.2149707232
 C         -6.3462895177        1.0771922954        0.6956062881
 C         -6.7869918539       -1.1231647748       -0.1000821243
 H         -6.6589169727        1.9858569520        1.1876010514
 H         -7.4451439514       -1.9653057212       -0.2425446211
 C         -2.8321974886        2.0085114633       -0.1024584602
 H         -2.1896937246        2.8655997265        0.0274067930
 C         -4.1201439383        2.0926513787        0.3614038616
 H         -4.4589251486        2.9964888524        0.8456115293
 C         -3.7410248113       -2.4986120795       -1.7250235742
 H         -3.4102694198       -3.3946943447       -2.2284374711
 C         -5.0285637933       -2.4026623076       -1.2591681955
 H         -5.7173034695       -3.2233151653       -1.3927135055
 C         -8.6440659967        0.1413991300        1.1136229477
 C         -9.3414444676        1.3355913444        0.4443224948
 H         -9.3836276304        1.1969183035       -0.6337832327
 H         -8.8319327917        2.2725677942        0.6514421254
 H        -10.3580507662        1.4179358834        0.8177994727
 C         -8.5471081548        0.3758074561        2.6295741552
 H         -9.5459800641        0.4431940822        3.0508232612
 H         -8.0214122999        1.2971133725        2.8651822328
 H         -8.0280267873       -0.4505205483        3.1106350784
 C         -9.4858680712       -1.1121750263        0.8696521986
 H         -9.0477121764       -1.9838788862        1.3509158049
 H         -9.6096867810       -1.3059293349       -0.1934734561
 H        -10.4756938331       -0.9666778911        1.2935435161
 H         -1.1702821515       -2.4265645043       -2.5178941027
