77
       -105.32405356
 H         -0.3692405174        2.0250813240        1.1545394784
 C          0.6361131218        1.6811711638        0.9620703126
 C          3.2322651203        0.7975532739        0.4531200585
 C          1.0160960669        0.4176591557        1.4153925788
 C          1.5083340451        2.5058407520        0.2901282611
 C          2.8263090753        2.0853730087        0.0190171883
 C          2.3333531275       -0.0488343354        1.1611015336
 H          1.1906767904        3.4848640985       -0.0350092588
 C          4.5481146405        0.3643244369        0.1739034499
 C          7.1915762376       -0.5312960005       -0.4193630576
 C          4.9915552216       -0.9134500072        0.5897950608
 C          5.4487487896        1.2018509950       -0.5297322903
 C          6.7490864558        0.7340686348       -0.8075509107
 C          6.3048792653       -1.3348239921        0.2847056890
 H          7.4131709550        1.3957554331       -1.3429203569
 H          6.6037869744       -2.3153079986        0.6191613815
 C          3.7418445689        2.9114647926       -0.6692793981
 H          3.4195483440        3.8929089218       -0.9832953085
 C          5.0181546972        2.4839955120       -0.9378406285
 H          5.7065854448        3.1260367174       -1.4665251193
 C          2.8152994046       -1.3140646300        1.5801606271
 H          2.1749890991       -1.9767362827        2.1416175800
 C          4.0914816061       -1.7325498729        1.3035691753
 H          4.4227160022       -2.7043082874        1.6384305664
 C          8.5980879513       -0.9703340279       -0.7781004530
 C          8.7402790331       -0.9491992871       -2.3084151431
 H          8.0154258200       -1.6178627498       -2.7680134866
 H          9.7363621564       -1.2827132151       -2.5847614823
 H          8.5958448507        0.0473378716       -2.7166359449
 C          8.9177406747       -2.3803455439       -0.2796646085
 H          8.2492535599       -3.1170783591       -0.7200255842
 H          8.8616246798       -2.4394684182        0.8049824590
 H          9.9313945100       -2.6418578355       -0.5706122251
 C          9.5999830924        0.0101802479       -0.1486086240
 H          9.4841075697        0.0317189354        0.9327787509
 H          9.4751280629        1.0203146510       -0.5284672110
 H         10.6122844307       -0.3101365620       -0.3777490624
 C         -0.0252448793       -0.3902663457        2.1436614313
 H         -0.4831464490        0.2378411625        2.9067646358
 H          0.4177693225       -1.2488482758        2.6467458415
 H          0.3511352163       -2.3037304955        0.3751617320
 C         -0.6509737220       -1.9098569445        0.2933350886
 C         -3.2384544684       -0.8927210705        0.0692871719
 C         -1.5042499890       -2.4412730440       -0.6457457727
 C         -1.0463841845       -0.8854749220        1.1539398545
 C         -2.3594102429       -0.3537962207        1.0503538387
 C         -2.8174149122       -1.9467301046       -0.7813098030
 C         -4.5493609604       -0.3833847446       -0.0693196505
 C         -7.1822510710        0.6749109624       -0.3691276169
 C         -5.4302596651       -0.9155328322       -1.0432457402
 C         -5.0074185233        0.6677926491        0.7598486429
 C         -6.3151590781        1.1751415749        0.5929134370
 C         -6.7258260947       -0.3744063187       -1.1680283644
 H         -6.6256438902        1.9761748915        1.2444497143
 H         -7.3747939600       -0.8022528959       -1.9171915185
 C         -2.8559873220        0.6846801263        1.8771958585
 H         -2.2313819537        1.1043656929        2.6505630217
 C         -4.1272375186        1.1791233543        1.7367592573
 H         -4.4700175894        1.9719791497        2.3848673880
 C         -3.7136115685       -2.4735253202       -1.7371887266
 H         -3.3802094685       -3.2827636979       -2.3693985792
 C         -4.9852055038       -1.9734956652       -1.8669587044
 H         -5.6587536018       -2.3852236735       -2.6034870984
 C         -8.5820015426        1.2180975385       -0.5821742563
 C         -8.9187454221        2.3633767966        0.3737023775
 H         -9.9265635580        2.7148723409        0.1705140094
 H         -8.2434269568        3.2052206146        0.2365526117
 H         -8.8876459365        2.0362873067        1.4105955902
 C         -9.5939774440        0.0828822887       -0.3616025402
 H        -10.6020872817        0.4676545949       -0.4862108739
 H         -9.5027489063       -0.3188134688        0.6451775591
 H         -9.4563434292       -0.7291246553       -1.0700886207
 C         -8.6890803479        1.7381453016       -2.0246074973
 H         -7.9566815895        2.5228268803       -2.2024259858
 H         -9.6799547010        2.1518154226       -2.1883923320
 H         -8.5312400621        0.9487710959       -2.7543783409
 H         -1.1752410789       -3.2443074639       -1.2876149034
