77
       -105.32394763
 H         -0.3851962189        1.7997475185        1.4500578406
 C          0.6227101809        1.4821802902        1.2279543825
 C          3.2253747554        0.6534818987        0.6629592264
 C          1.0384370060        1.4361308395       -0.1030390677
 C          1.4632232222        1.1492446230        2.2647620293
 C          2.7837329947        0.7272381356        2.0087883985
 C          2.3592421418        1.0118872058       -0.4080064902
 H          1.1185640384        1.2099264848        3.2858577437
 C          4.5437968700        0.2191255672        0.3979977407
 C          7.1926656519       -0.6916380112       -0.1458989327
 C          5.0222532245        0.1315924168       -0.9308036019
 C          5.4120218640       -0.1382865561        1.4592039789
 C          6.7157950828       -0.5834180236        1.1612086433
 C          6.3375288035       -0.3219271506       -1.1752986936
 H          7.3545278936       -0.8466714086        1.9907721516
 H          6.6635996840       -0.3744984409       -2.2016854686
 C          3.6672333296        0.3792307953        3.0541104679
 H          3.3179870110        0.4508832526        4.0732309792
 C          4.9463461893       -0.0422586009        2.7895569636
 H          5.6101671232       -0.3061865715        3.5990903991
 C          2.8757347560        0.9307443057       -1.7253306175
 H          2.2607193555        1.2159969001       -2.5648174846
 C          4.1543649636        0.5050521726       -1.9785910039
 H          4.5125479155        0.4555748615       -2.9961463426
 C          8.6005434306       -1.2021282214       -0.3846475524
 C          9.5941028098       -0.2680092186        0.3236183267
 H          9.4400272129       -0.2490460756        1.3988708903
 H          9.4999771572        0.7470206499       -0.0560594453
 H         10.6080815805       -0.6101126316        0.1374081212
 C          8.9599653284       -1.2595079491       -1.8700075978
 H          8.9268517933       -0.2717006508       -2.3241593221
 H          8.2985906250       -1.9322551194       -2.4118109422
 H          9.9729235121       -1.6370732746       -1.9790832203
 C          8.7111907496       -2.6194733753        0.1997485494
 H          8.5377717891       -2.6318875076        1.2722922591
 H          9.7082090751       -3.0100537303        0.0175891862
 H          7.9912788598       -3.2841960000       -0.2731316032
 C          0.0302537720        1.8309263630       -1.1494107339
 H          0.5012709318        1.9776138086       -2.1205283890
 H         -0.4230143033        2.7775179487       -0.8580242272
 H          0.4066448219       -0.5270679873       -2.2587174767
 C         -0.6056411249       -0.4414520187       -1.8926137128
 C         -3.2209569656       -0.2373912290       -0.9449237717
 C         -1.4710381371       -1.4994718370       -2.0650913942
 C         -1.0020699608        0.7413664916       -1.2731850936
 C         -2.3310194099        0.8609046066       -0.7796956206
 C         -2.7964464570       -1.4234033647       -1.5964527372
 C         -4.5467337652       -0.1590724165       -0.4614760447
 C         -7.2128451930       -0.0142086243        0.5461403900
 C         -5.4406928867       -1.2475556719       -0.6226445154
 C         -5.0067857007        1.0067785782        0.1934230495
 C         -6.3294396645        1.0543203543        0.6821791906
 C         -6.7541376128       -1.1488310449       -0.1144438031
 H         -6.6479116171        1.9594974553        1.1768525761
 H         -7.4053543248       -1.9966758293       -0.2548858952
 C         -2.8291773959        2.0198934383       -0.1358851902
 H         -2.1946359376        2.8835737318       -0.0106480959
 C         -4.1152348772        2.0915384084        0.3352976750
 H         -4.4599656467        2.9919606080        0.8216854885
 C         -3.7050199890       -2.4933748545       -1.7590956799
 H         -3.3689676529       -3.3853708903       -2.2662380381
 C         -4.9909014021       -2.4098187993       -1.2863594093
 H         -5.6729822524       -3.2363414430       -1.4178469687
 C         -8.6148268753        0.0949323324        1.1149607808
 C         -9.4453608855       -1.1670673766        0.8757573912
 H         -8.9941985505       -2.0347793531        1.3522129196
 H         -9.5756048045       -1.3605931178       -0.1866337424
 H        -10.4332609865       -1.0326318618        1.3077177320
 C         -9.3295616622        1.2825754011        0.4523966558
 H         -9.3783554587        1.1447752067       -0.6255375938
 H         -8.8283120622        2.2245604074        0.6569341646
 H        -10.3441630787        1.3538302294        0.8335430414
 C         -8.5090247136        0.3285075514        2.6304523691
 H         -7.9777269503       -0.4929140747        3.1065672568
 H         -9.5053580720        0.3849332055        3.0592600106
 H         -7.9912450755        1.2549893897        2.8632971758
 H         -1.1387498126       -2.3972966875       -2.5637834521
