77
       -105.32214584
 H          0.5220318695        4.5217068413        0.2732898967
 C          1.1752974861        3.6621732674        0.3181691249
 C          2.9148335669        1.4827548066        0.4184135232
 C          1.0532524049        2.6629490547       -0.6495233514
 C          2.1188720630        3.5964382598        1.3188742807
 C          3.0172653647        2.5118293669        1.3895160016
 C          1.9248447870        1.5411017684       -0.5996196293
 H          2.1907244556        4.3887448804        2.0484370382
 C          3.8296387738        0.4068796155        0.4569220721
 C          5.7035854808       -1.7423202256        0.5017437867
 C          3.7692905426       -0.6261488551       -0.5079668416
 C          4.8370722368        0.3549330218        1.4520653472
 C          5.7495276501       -0.7193017398        1.4503638463
 C          4.7079639590       -1.6810890793       -0.4637250496
 H          6.5078269127       -0.7314075963        2.2186298473
 H          4.6309581480       -2.4481252331       -1.2175162948
 C          4.0194599970        2.4365641857        2.3811748943
 H          4.0837338994        3.2256349701        3.1153334774
 C          4.9069508625        1.3890017577        2.4124155200
 H          5.6741556397        1.3501144093        3.1711221776
 C          1.8799071266        0.4864386154       -1.5422251044
 H          1.1300513661        0.5052675427       -2.3174386358
 C          2.7669786073       -0.5580778963       -1.4995420687
 H          2.7114929749       -1.3426027097       -2.2394685224
 C          6.7290466390       -2.8583464131        0.5611359174
 C          6.5305875406       -3.8963603636       -0.5443738547
 H          6.6352686975       -3.4496958553       -1.5306596211
 H          5.5594529832       -4.3801448552       -0.4645243992
 H          7.2904238950       -4.6673767168       -0.4514128064
 C          6.6134499453       -3.5644505688        1.9211621363
 H          5.6138313214       -3.9722710252        2.0557437624
 H          6.8259448300       -2.8931003796        2.7483885431
 H          7.3254379274       -4.3835773916        1.9650949884
 C          8.1295737389       -2.2442464077        0.4101189487
 H          8.8751163271       -3.0340263422        0.4279837953
 H          8.3587552206       -1.5499349201        1.2137255815
 H          8.2140715898       -1.7149987880       -0.5365384727
 C          0.0937291428        2.8806260243       -1.7860870378
 H          0.6973014051        3.0776331714       -2.6790220888
 H         -0.4731852860        3.7959279669       -1.5828654493
 H         -0.3190923193        1.7882236295       -4.1847204766
 C         -1.0127146513        1.3970679633       -3.4543434914
 C         -2.8538816260        0.4210478418       -1.5986937902
 C         -1.9880192113        0.5177576945       -3.8686985954
 C         -0.9083548674        1.8126246668       -2.1253747934
 C         -1.8322567559        1.3106143812       -1.1687588527
 C         -2.9375731140        0.0150347484       -2.9554067668
 C         -3.8182562265       -0.0485057478       -0.6792558966
 C         -5.7899639056       -0.9557992140        1.1706244293
 C         -4.8564847353       -0.9137237361       -1.1051959277
 C         -3.7768144736        0.3520292941        0.6770759961
 C         -4.7639643549       -0.1124785654        1.5746774187
 C         -5.8172664901       -1.3466109912       -0.1691850849
 H         -4.6997283163        0.2166353705        2.5993868195
 H         -6.5983073708       -2.0027185643       -0.5225932754
 C         -1.8082032602        1.6826956468        0.1964457170
 H         -1.0356653393        2.3491437162        0.5465784660
 C         -2.7433838475        1.2218404083        1.0868127257
 H         -2.7022036366        1.5321446389        2.1202829515
 C         -3.9715794686       -0.8576315417       -3.3588173612
 H         -4.0212871124       -1.1601882035       -4.3940685246
 C         -4.9072405536       -1.3092683844       -2.4607124311
 H         -5.6979035658       -1.9685910750       -2.7861353387
 C         -6.8673726295       -1.4562520378        2.1136573245
 C         -6.6821812911       -0.9407904860        3.5416085568
 H         -6.7357509619        0.1449345087        3.5810380546
 H         -5.7370315332       -1.2747055761        3.9643704699
 H         -7.4788496655       -1.3312262913        4.1687658545
 C         -6.8283208521       -2.9922687132        2.1394879738
 H         -5.8534119478       -3.3438476501        2.4705660335
 H         -7.0363855406       -3.4219020104        1.1636397056
 H         -7.5782736958       -3.3614846998        2.8330767911
 C         -8.2321873319       -0.9781964150        1.5938096947
 H         -8.2614083622        0.1079982086        1.5413974597
 H         -9.0138793265       -1.3089294821        2.2716488004
 H         -8.4544312221       -1.3760395430        0.6075441046
 H         -2.0448387548        0.2209644614       -4.9049723166
