77
       -105.32213004
 H          0.4909157069        4.4853209752        0.0572984402
 C          1.1532746804        3.6358396949       -0.0289460821
 C          2.9215190487        1.4867195227       -0.2285535016
 C          1.0260198054        2.5783861394        0.8736681729
 C          2.1132314823        3.6401076089       -1.0163666852
 C          3.0246703304        2.5710622781       -1.1373777946
 C          1.9141766252        1.4730689575        0.7739122311
 H          2.1874643587        4.4755102860       -1.6959323772
 C          3.8528251749        0.4276879469       -0.3126088869
 C          5.7652092320       -1.6841394569       -0.4409009453
 C          3.7943504113       -0.6577906476        0.5929683292
 C          4.8752732186        0.4451690339       -1.2935102233
 C          5.8051880135       -0.6133109278       -1.3354723013
 C          4.7530591022       -1.6920244309        0.5091721599
 H          6.5731853753       -0.5733733665       -2.0931016133
 H          4.6783232171       -2.4990458098        1.2202225600
 C          4.0411328954        2.5642293197       -2.1173722117
 H          4.1049118598        3.3941369092       -2.8050848752
 C          4.9428498514        1.5312939472       -2.1947388667
 H          5.7203831348        1.5446317915       -2.9437481180
 C          1.8697284531        0.3654857476        1.6539439208
 H          1.1069340019        0.3282213927        2.4153683369
 C          2.7744671366       -0.6610997033        1.5686846870
 H          2.7194016028       -1.4866924728        2.2625292741
 C          6.8132790038       -2.7760937416       -0.5396090843
 C          6.7159966474       -3.4290539934       -1.9273758564
 H          5.7275091918       -3.8574672935       -2.0790814306
 H          7.4495799446       -4.2264113446       -2.0040864336
 H          6.9097429244       -2.7185417857       -2.7260732481
 C          6.6314213263       -3.8607963470        0.5231457372
 H          7.4105136562       -4.6091385831        0.4071557223
 H          5.6732220441       -4.3647251034        0.4165798114
 H          6.7175193299       -3.4498440233        1.5266600904
 C          8.2011363275       -2.1419256226       -0.3580341467
 H          8.2692534117       -1.6421778090        0.6058354391
 H          8.4240420962       -1.4183033098       -1.1371352264
 H          8.9611004935       -2.9171269584       -0.3954760723
 C          0.0368436915        2.7091845074        1.9987114158
 H         -0.5254016219        3.6379151668        1.8529371121
 H          0.6145339474        2.8323968757        2.9212154900
 H         -0.4109626200        1.3859383854        4.2742205937
 C         -1.0896227596        1.0651064992        3.4968827575
 C         -2.8985369146        0.2725584644        1.5258593593
 C         -2.0614687514        0.1391648133        3.8045860272
 C         -0.9700504122        1.6142348331        2.2188774074
 C         -1.8796785999        1.2097762788        1.2042591869
 C         -2.9930601683       -0.2756828233        2.8308048002
 C         -3.8494567168       -0.1036013412        0.5510955404
 C         -5.7984585301       -0.8179062091       -1.4045809300
 C         -4.8830333882       -1.0188903990        0.8701846796
 C         -3.7993686261        0.4415948709       -0.7535205252
 C         -4.7758084707        0.0714671933       -1.7050584560
 C         -5.8319441164       -1.3548277022       -0.1164847730
 H         -4.7060492358        0.5113677736       -2.6869401137
 H         -6.6091855285       -2.0528920435        0.1555463742
 C         -1.8451867835        1.7254437614       -0.1133221206
 H         -1.0750619270        2.4305909186       -0.3828852135
 C         -2.7688987394        1.3570613992       -1.0571509919
 H         -2.7206898260        1.7771571697       -2.0507592633
 C         -4.0208587796       -1.1976663232        3.1262017203
 H         -4.0776741216       -1.6102938974        4.1223377301
 C         -4.9417950151       -1.5600691462        2.1740894830
 H         -5.7275608341       -2.2594205078        2.4175169410
 C         -6.8653039719       -1.2180165635       -2.4057121536
 C         -6.8091475636       -2.7405381442       -2.6063374690
 H         -7.0168951155       -3.2806881691       -1.6870370822
 H         -5.8288483951       -3.0416620852       -2.9694525012
 H         -7.5515813736       -3.0360852797       -3.3420390298
 C         -6.6779083362       -0.5408239808       -3.7641786698
 H         -6.7406879414        0.5418053001       -3.6790129056
 H         -7.4683119881       -0.8631043541       -4.4363912785
 H         -5.7280398920       -0.8163145254       -4.2173373478
 C         -8.2382397543       -0.8164545514       -1.8443344070
 H         -8.4607694693       -1.3239458941       -0.9098865212
 H         -9.0126173929       -1.0785038803       -2.5595714354
 H         -8.2806753019        0.2567178675       -1.6716963577
 H         -2.1291228855       -0.2632054079        4.8039530979
