77
       -105.32212250
 H          0.5544931977        4.5822770936        0.3529617736
 C          1.2006090302        3.7273161799        0.2153055552
 C          2.9151715744        1.5517447433       -0.1222929905
 C          1.0260371411        2.6045542119        1.0272371010
 C          2.1861682072        3.7865665881       -0.7443092433
 C          3.0735095644        2.7064967146       -0.9310489474
 C          1.8846282709        1.4848337664        0.8540967117
 H          2.2989971578        4.6723344918       -1.3508104135
 C          3.8139662428        0.4731617991       -0.2792657998
 C          5.6487588604       -1.6910715784       -0.5656553828
 C          3.6963922599       -0.6862829587        0.5229591727
 C          4.8614839102        0.5427175952       -1.2310338703
 C          5.7537965960       -0.5416855540       -1.3508267851
 C          4.6163067832       -1.7460722927        0.3606675761
 H          6.5439222941       -0.4596262973       -2.0818374559
 H          4.4945253893       -2.6120657737        0.9912774790
 C          4.1171846382        2.7539171863       -1.8806781441
 H          4.2252802044        3.6389889987       -2.4895394773
 C          4.9894445426        1.7032451428       -2.0268471561
 H          5.7884064314        1.7579925793       -2.7510062684
 C          1.7859365412        0.3087816131        1.6349059152
 H          1.0064352135        0.2342319379        2.3770388406
 C          2.6567237581       -0.7381375709        1.4763577891
 H          2.5590043447       -1.6186139251        2.0938072313
 C          6.6532625593       -2.8125027530       -0.7498153027
 C          6.5818088000       -3.3071442197       -2.2029385723
 H          5.5821885678       -3.6688343302       -2.4342478065
 H          7.2818700814       -4.1260859256       -2.3410309014
 H          6.8382794182       -2.5258909444       -2.9128072942
 C          6.3867835559       -3.9966866182        0.1806095628
 H          7.1330528182       -4.7660487675        0.0027805414
 H          5.4096274844       -4.4365434700       -0.0072096239
 H          6.4598860528       -3.7039521500        1.2256691504
 C          8.0579636431       -2.2639689970       -0.4542109325
 H          8.1115063564       -1.8797543711        0.5620787378
 H          8.3360899365       -1.4670584755       -1.1382142544
 H          8.7873383558       -3.0623159111       -0.5567104516
 C          0.0247745392        2.6814343332        2.1453666790
 H         -0.5407614987        3.6132838798        2.0326955447
 H          0.5959973518        2.7739016687        3.0760264958
 H         -0.4899923235        1.3449396315        4.3943462310
 C         -1.1466675791        1.0303382870        3.5961016115
 C         -2.8903681757        0.2455976678        1.5637444607
 C         -2.1346384333        0.1116822074        3.8711097515
 C         -0.9822758816        1.5801971427        2.3229085611
 C         -1.8554588926        1.1762612589        1.2763276067
 C         -3.0364891926       -0.2963722073        2.8666546826
 C         -3.8060502314       -0.1298277552        0.5555990106
 C         -5.6799752636       -0.8482579321       -1.4702350493
 C         -4.8583537435       -1.0348929442        0.8410577164
 C         -3.7012716339        0.4056950954       -0.7497913269
 C         -4.6407350054        0.0326293028       -1.7368265506
 C         -5.7701939387       -1.3718632747       -0.1793699148
 H         -4.5289115326        0.4633540378       -2.7188897268
 H         -6.5639707828       -2.0604894655        0.0678100664
 C         -1.7672878846        1.6844245139       -0.0414557024
 H         -0.9828744782        2.3845025768       -0.2836683588
 C         -2.6546360535        1.3139485375       -1.0187031324
 H         -2.5649888288        1.7266909619       -2.0125067916
 C         -4.0831523205       -1.2068516169        3.1289858764
 H         -4.1804796523       -1.6131888149        4.1245567185
 C         -4.9719510186       -1.5658629634        2.1455500297
 H         -5.7734033880       -2.2556464257        2.3637712780
 C         -6.7073410358       -1.2528991278       -2.5101674508
 C         -6.4550283102       -0.5983006638       -3.8691180584
 H         -7.2174159161       -0.9257168738       -4.5705645677
 H         -5.4881465444       -0.8875942020       -4.2753401404
 H         -6.5132529144        0.4859322270       -3.8037371662
 C         -8.0983828407       -0.8290867408       -2.0132896466
 H         -8.1361491791        0.2467554769       -1.8566513328
 H         -8.3659624829       -1.3216538639       -1.0826247210
 H         -8.8444460098       -1.0925700409       -2.7575595707
 C         -6.6590464418       -2.7787479810       -2.6860348615
 H         -5.6671692018       -3.0954084694       -3.0015999777
 H         -7.3719682674       -3.0776649557       -3.4490650943
 H         -6.9126587084       -3.3031982666       -1.7690888081
 H         -2.2386233566       -0.2899358916        4.8676225031
