77
       -105.32210214
 H          0.5776719904        4.6269626552        0.3221268928
 C          1.2104819717        3.7614304585        0.1888814341
 C          2.8913475157        1.5578408233       -0.1373643293
 C          1.0263575358        2.6502448929        1.0146204184
 C          2.1876762919        3.7949644663       -0.7804128345
 C          3.0567440638        2.6994091205       -0.9632902446
 C          1.8694831228        1.5175855483        0.8494991228
 H          2.3075573164        4.6717012360       -1.3985639637
 C          3.7746566816        0.4656447091       -0.2880082437
 C          5.5846899570       -1.7216612467       -0.5554606133
 C          3.6511315503       -0.6804047183        0.5323749770
 C          4.8129508911        0.5082137569       -1.2513946640
 C          5.6927061659       -0.5873276983       -1.3618648558
 C          4.5586627077       -1.7521676136        0.3790510892
 H          6.4758252475       -0.5260114211       -2.1023833119
 H          4.4329265835       -2.6072463618        1.0236186207
 C          4.0895718332        2.7189974135       -1.9256327348
 H          4.2022843099        3.5936567037       -2.5485426376
 C          4.9460444828        1.6546909595       -2.0664915578
 H          5.7370467964        1.6881650661       -2.8006130841
 C          1.7635932635        0.3538658253        1.6476834203
 H          0.9910439953        0.2998322971        2.3988551211
 C          2.6198751484       -0.7059347613        1.4959406448
 H          2.5175077171       -1.5760788846        2.1271347927
 C          6.5804730402       -2.8530101689       -0.7257240424
 C          6.5001231744       -3.3721588918       -2.1697889651
 H          5.4960903402       -3.7269288480       -2.3926943015
 H          7.1908602671       -4.2010147628       -2.2948948600
 H          6.7637146764       -2.6064042993       -2.8938629929
 C          6.3110411094       -4.0194540177        0.2260769841
 H          5.3309149311       -4.4571889852        0.0493350590
 H          6.3895155242       -3.7090426118        1.2656133091
 H          7.0526686501       -4.7956922552        0.0591078852
 C          7.9895579499       -2.3078040228       -0.4452716598
 H          8.0515914782       -1.9136095412        0.5667159252
 H          8.2663397625       -1.5187522668       -1.1389389070
 H          8.7148753654       -3.1102462554       -0.5447240624
 C          0.0293652526        2.7502740777        2.1344781973
 H         -0.5300084148        3.6845497593        2.0111084414
 H          0.6028681539        2.8510831584        3.0628737405
 H         -0.5147813267        1.4695437811        4.4082562185
 C         -1.1615474577        1.1355013546        3.6098553352
 C         -2.8767873731        0.2974719583        1.5743546885
 C         -2.1491904669        0.2191085479        3.8933570356
 C         -0.9837611950        1.6572680672        2.3266578574
 C         -1.8456253883        1.2300518581        1.2799164864
 C         -3.0349659945       -0.2178205554        2.8866468441
 C         -3.7758050985       -0.1079330722        0.5628125419
 C         -5.6107010807       -0.8941087007       -1.4735679843
 C         -4.8215058464       -1.0190789097        0.8531720465
 C         -3.6599298581        0.4019081711       -0.7518370582
 C         -4.5804953366       -0.0037890369       -1.7436709617
 C         -5.7134417830       -1.3905094853       -0.1729279654
 H         -4.4608708443        0.4086516603       -2.7326170805
 H         -6.5016143246       -2.0843570493        0.0775441774
 C         -1.7490330600        1.7156985067       -0.0457154557
 H         -0.9709128350        2.4212518042       -0.2920107851
 C         -2.6213780890        1.3178781203       -1.0255871040
 H         -2.5256361079        1.7139820478       -2.0255583805
 C         -4.0769175985       -1.1319145469        3.1549804526
 H         -4.1845627127       -1.5166224872        4.1580495445
 C         -4.9478633289       -1.5222660575        2.1674543246
 H         -5.7449723656       -2.2157346423        2.3898729696
 C         -6.6144346950       -1.3376526517       -2.5206224895
 C         -6.3540309134       -0.7037835884       -3.8879339402
 H         -5.3763679009       -0.9830759149       -4.2749462081
 H         -6.4323096191        0.3802606608       -3.8434920543
 H         -7.1001905069       -1.0576497072       -4.5939401707
 C         -8.0211321818       -0.9325828421       -2.0533499185
 H         -8.7496276579       -1.2214553822       -2.8054958029
 H         -8.0814683720        0.1446376434       -1.9142885340
 H         -8.2952368751       -1.4156793643       -1.1196568084
 C         -6.5329666354       -2.8653016853       -2.6664723714
 H         -6.7862121872       -3.3771030748       -1.7422771217
 H         -5.5311745585       -3.1673025681       -2.9647215117
 H         -7.2307114185       -3.1933468739       -3.4315391424
 H         -2.2636401885       -0.1606657644        4.8972450804
