77
       -105.32209857
 H          0.4436184366        4.3948529594        0.1500927002
 C          1.1242242779        3.5585690788        0.2222573360
 C          2.9439856374        1.4500338841        0.3844034548
 C          1.0409599078        2.5291993599       -0.7170577664
 C          2.0661839954        3.5547481671        1.2269552311
 C          3.0055202616        2.5081179980        1.3272791424
 C          1.9511531717        1.4406329359       -0.6325552781
 H          2.1071184704        4.3693406208        1.9340431714
 C          3.9037207289        0.4152530412        0.4481043841
 C          5.8801134798       -1.6391855727        0.5296661379
 C          3.8848183823       -0.6448131200       -0.4887591134
 C          4.9166363069        0.4339442586        1.4388260588
 C          5.8803493678       -0.5945470765        1.4554906598
 C          4.8732719015       -1.6523085329       -0.4260494355
 H          6.6423271861       -0.5522856347        2.2190493381
 H          4.8266442165       -2.4420231040       -1.1586239141
 C          4.0101313443        2.4996525287        2.3194515604
 H          4.0408755437        3.3083691859        3.0341470715
 C          4.9423252905        1.4927221784        2.3740952567
 H          5.7118228603        1.5059751002        3.1313601943
 C          1.9438322895        0.3559654810       -1.5416971757
 H          1.1884293556        0.3187895033       -2.3104957883
 C          2.8737694847       -0.6492928113       -1.4736733366
 H          2.8464351493       -1.4577009967       -2.1890733942
 C          6.9659732797       -2.6958586236        0.6000997302
 C          6.8113794451       -3.7683057855       -0.4792352857
 H          7.6148796513       -4.4929944472       -0.3808562127
 H          6.8771027028       -3.3389991262       -1.4765625999
 H          5.8703858402       -4.3040105082       -0.3742469951
 C          6.9097384957       -3.3760271231        1.9768822041
 H          5.9358410951       -3.8337300068        2.1370229979
 H          7.0987595265       -2.6758404869        2.7856737785
 H          7.6654769485       -4.1546395063        2.0266318361
 C          8.3273665891       -2.0074608891        0.4142925058
 H          8.3696918093       -1.4988281222       -0.5464331630
 H          9.1170158136       -2.7528787934        0.4416325229
 H          8.5262950162       -1.2805540437        1.1969319421
 C          0.0825638917        2.6822553514       -1.8660398610
 H          0.6870406651        2.8331824973       -2.7669809012
 H         -0.4890654351        3.6037675699       -1.7115545552
 H         -0.2600928854        1.3955865011       -4.1803032788
 C         -0.9779860508        1.0679065369       -3.4420080523
 C         -2.8906171405        0.2643523012       -1.5765420334
 C         -1.9462393295        0.1621788450       -3.8144558382
 C         -0.9134514797        1.5916065944       -2.1494884084
 C         -1.8718823815        1.1751792701       -1.1859319486
 C         -2.9321254021       -0.2539222774       -2.8963977806
 C         -3.8951999873       -0.1127521086       -0.6575671205
 C         -5.9572116629       -0.8198125467        1.1813328585
 C         -4.9323983796       -0.9955610678       -1.0483507052
 C         -3.8967002135        0.4010958482        0.6607036274
 C         -4.9280367161        0.0341857236        1.5539266569
 C         -5.9385342904       -1.3276050813       -0.1187465426
 H         -4.8962052237        0.4486515773        2.5487743778
 H         -6.7184521730       -1.9985736849       -0.4457533386
 C         -1.8868201726        1.6553012899        0.1454089481
 H         -1.1132329033        2.3335821538        0.4688841359
 C         -2.8608211026        1.2834626553        1.0359500899
 H         -2.8492108815        1.6759698648        2.0418714946
 C         -3.9627058992       -1.1471019037       -3.2621679343
 H         -3.9782137553       -1.5379446518       -4.2685233697
 C         -4.9381806937       -1.5074901146       -2.3652671941
 H         -5.7264471697       -2.1826581830       -2.6628060125
 C         -7.0870280758       -1.2090292643        2.1154709839
 C         -7.0991389904       -2.7374904287        2.2729102030
 H         -6.1509531651       -3.0872203529        2.6756959376
 H         -7.2802234739       -3.2436119711        1.3288903065
 H         -7.8891293035       -3.0238012624        2.9612403258
 C         -8.4128202583       -0.7385383056        1.4965962735
 H         -9.2329581022       -0.9897412341        2.1630527460
 H         -8.6044080391       -1.2110883445        0.5371780961
 H         -8.4056705134        0.3398779062        1.3536544343
 C         -6.9454040745       -0.5784080523        3.5015516402
 H         -6.0285712384       -0.8992847270        3.9914219922
 H         -7.7782710048       -0.8931466667        4.1242279215
 H         -6.9686592542        0.5077461393        3.4471413233
 H         -1.9711978751       -0.2196958841       -4.8237916703
