77
       -105.32199739
 H          0.3798190607        4.2646498261        0.4460926281
 C          1.0819059345        3.4432656262        0.4673294737
 C          2.9650943681        1.3854395875        0.4977825525
 C          1.0382983517        2.4822494194       -0.5439187717
 C          2.0138948330        3.3949504020        1.4804260342
 C          2.9853993424        2.3739913062        1.5148885865
 C          1.9799705122        1.4175514165       -0.5262561425
 H          2.0230377703        4.1572567046        2.2446628086
 C          3.9584559547        0.3808187633        0.4953181350
 C          6.0045083147       -1.6055144305        0.4433665123
 C          3.9809957494       -0.6088270390       -0.5155633434
 C          4.9642798713        0.3614202672        1.4932220414
 C          5.9624997871       -0.6326589241        1.4434164652
 C          5.0037710740       -1.5834882799       -0.5186418055
 H          6.7173435159       -0.6211648987        2.2151145711
 H          4.9886039892       -2.3187533475       -1.3070917354
 C          3.9831914820        2.3265500316        2.5129470686
 H          3.9822540906        3.0818929882        3.2844535105
 C          4.9484733540        1.3498450934        2.5027335882
 H          5.7125848849        1.3339200956        3.2653896368
 C          2.0125698014        0.3993907964       -1.5089115848
 H          1.2618145082        0.3904305631       -2.2827384013
 C          2.9752059633       -0.5770622942       -1.5052443180
 H          2.9781621732       -1.3334043066       -2.2759681504
 C          7.1261101749       -2.6266239687        0.4450653657
 C          7.0787538850       -3.4143040858        1.7636952805
 H          7.8625653377       -4.1662913785        1.7639725782
 H          6.1208518771       -3.9183459967        1.8729809381
 H          7.2312924924       -2.7730225538        2.6272017075
 C          8.4648572357       -1.8805403659        0.3317479560
 H          8.4986722947       -1.2943427627       -0.5840683864
 H          9.2791387862       -2.5990760821        0.3079840636
 H          8.6320817731       -1.2136208109        1.1729990521
 C          7.0203937208       -3.6155007025       -0.7168287343
 H          6.0991991803       -4.1918049424       -0.6649126855
 H          7.8494156747       -4.3159908250       -0.6667387658
 H          7.0783734214       -3.1065155917       -1.6764686374
 C          0.0883121181        2.6890304704       -1.6924586897
 H          0.6988511606        2.8795901239       -2.5813683692
 H         -0.4844608168        3.6021081273       -1.4990262470
 H         -0.1901429401        1.4529148450       -4.0450887867
 C         -0.9312529757        1.1135645299       -3.3354129236
 C         -2.9109931477        0.2895289760       -1.5511426967
 C         -1.8924309474        0.2216528052       -3.7571696082
 C         -0.9050646743        1.6108760778       -2.0315084775
 C         -1.8978366262        1.1827590310       -1.1086769494
 C         -2.9116571705       -0.2038380488       -2.8810857382
 C         -3.9507528613       -0.0939903628       -0.6748913959
 C         -6.0842564616       -0.8105477891        1.0770212031
 C         -4.9822457866       -0.9587562736       -1.1176722263
 C         -3.9936182582        0.3960787105        0.6516832739
 C         -5.0601951765        0.0255518436        1.5008944544
 C         -6.0239848836       -1.2965179757       -0.2300767178
 H         -5.0596571469        0.4227099460        2.5032717528
 H         -6.7981342455       -1.9539037608       -0.5961112571
 C         -1.9533023575        1.6362825834        0.2309464860
 H         -1.1836979468        2.2978009453        0.5950990045
 C         -2.9618090155        1.2587487114        1.0797879482
 H         -2.9808211049        1.6315244863        2.0930747913
 C         -3.9367905872       -1.0806257173       -3.2985626787
 H         -3.9206171259       -1.4533769703       -4.3117554778
 C         -4.9463571019       -1.4473679485       -2.4429337751
 H         -5.7298126980       -2.1094279232       -2.7800288410
 C         -7.2496521316       -1.2042491713        1.9644220647
 C         -7.2728760066       -2.7343913522        2.1037925541
 H         -6.3422782290       -3.0920947239        2.5393030772
 H         -7.4181379648       -3.2287735521        1.1474063113
 H         -8.0901704296       -3.0256165984        2.7572940605
 C         -8.5505770505       -0.7215519303        1.3037422093
 H         -8.5329839352        0.3579438573        1.1700624094
 H         -9.3946577856       -0.9735983234        1.9392863374
 H         -8.7115745568       -1.1853982303        0.3345368970
 C         -7.1562818256       -0.5896284401        3.3617524967
 H         -6.2607336753       -0.9219883822        3.8823024981
 H         -8.0139729768       -0.9052823178        3.9492737303
 H         -7.1703641883        0.4971907775        3.3181529970
 H         -1.8865207415       -0.1401355945       -4.7741874311
