77
       -105.32195144
 H          0.4711499769        4.4569863684        0.4894057575
 C          1.1359911240        3.6051641775        0.4974988218
 C          2.9080827175        1.4500760874        0.5036343415
 C          1.0379073593        2.6550609667       -0.5209569652
 C          2.0709786048        3.5022267057        1.5032204996
 C          2.9857699775        2.4294226749        1.5269977369
 C          1.9254801682        1.5447198803       -0.5188653298
 H          2.1238918977        4.2571982705        2.2729066248
 C          3.8406252812        0.3888531005        0.4948640226
 C          5.7537202442       -1.7255154095        0.4421518275
 C          3.8050152394       -0.5942505665       -0.5220161461
 C          4.8417593476        0.3029665182        1.4939831056
 C          5.7740459894       -0.7529988594        1.4433156810
 C          4.7625402627       -1.6330278876       -0.5253962932
 H          6.5272413863       -0.7914312557        2.2157317782
 H          4.7040091878       -2.3616043558       -1.3179981458
 C          3.9808321250        2.3192671591        2.5226102679
 H          4.0256181722        3.0700475406        3.2972614648
 C          4.8861128501        1.2866739451        2.5072749511
 H          5.6480486700        1.2215528004        3.2694868794
 C          1.9042576168        0.5379009630       -1.5132735775
 H          1.1593666749        0.5830446617       -2.2919301749
 C          2.8082074022       -0.4929665074       -1.5161855608
 H          2.7706608781       -1.2401411033       -2.2948816512
 C          6.8008162306       -2.8228338627        0.4494081998
 C          6.6930243447       -3.6014892812        1.7698617666
 H          6.8884977600       -2.9705444299        2.6323329851
 H          7.4208354646       -4.4077690726        1.7747271298
 H          5.7010653533       -4.0352200197        1.8772954863
 C          8.1893423052       -2.1737966703        0.3388763845
 H          8.9506524527       -2.9483601375        0.3202187059
 H          8.4003604734       -1.5177149709        1.1787783062
 H          8.2677660191       -1.5944636287       -0.5785333474
 C          6.6286398373       -3.8050904274       -0.7101564581
 H          5.6670983556       -4.3116343177       -0.6614808828
 H          7.4034225818       -4.5646566146       -0.6533424619
 H          6.7290298620       -3.3052093118       -1.6710357407
 C          0.0864574662        2.9170678865       -1.6553120307
 H          0.6961139031        3.1556654005       -2.5337406915
 H         -0.4875968584        3.8192095739       -1.4169865570
 H         -0.2808650117        1.9003110561       -4.0961321572
 C         -0.9851086713        1.4847451449       -3.3897184446
 C         -2.8594875152        0.4478108963       -1.6017209465
 C         -1.9512791270        0.6146210899       -3.8494170479
 C         -0.9059380246        1.8582973688       -2.0491587938
 C         -1.8478582031        1.3245369036       -1.1246262907
 C         -2.9153240189        0.0828096494       -2.9712493821
 C         -3.8418685949       -0.0497970412       -0.7164655540
 C         -5.8564591168       -1.0116524005        1.0587720676
 C         -4.8713786081       -0.9031788923       -1.1874014102
 C         -3.8271411917        0.3114557486        0.6505081048
 C         -4.8347154136       -0.1786270130        1.5082312238
 C         -5.8550063424       -1.3657758520       -0.2864395469
 H         -4.7970827253        0.1186338143        2.5453738103
 H         -6.6239553641       -2.0116635766       -0.6791504843
 C         -1.8489488048        1.6543683247        0.2507282601
 H         -1.0828418863        2.3082989557        0.6363752104
 C         -2.8018597985        1.1674294296        1.1082881839
 H         -2.7808665108        1.4458963393        2.1514009632
 C         -3.9400762898       -0.7800343689       -3.4196584771
 H         -3.9686267015       -1.0527797255       -4.4639895236
 C         -4.8926862885       -1.2588701226       -2.5538109725
 H         -5.6752768075       -1.9095422475       -2.9142835407
 C         -6.9165832654       -1.4898664201        2.0333552182
 C         -7.9542273890       -2.3986880602        1.3720625130
 H         -7.4947104710       -3.2989452390        0.9700186829
 H         -8.4908160801       -1.8783411930        0.5818941177
 H         -8.6845086308       -2.7070673117        2.1151514003
 C         -7.6395986343       -0.2630238428        2.6101868693
 H         -8.4176082362       -0.5887493259        3.2946047351
 H         -8.1047761616        0.3148176189        1.8145574310
 H         -6.9627677384        0.3874807736        3.1574730496
 C         -6.2324441781       -2.2737299143        3.1639971961
 H         -6.9844614586       -2.6435796219        3.8549576003
 H         -5.5379795823       -1.6548519084        3.7255521650
 H         -5.6888756739       -3.1263429901        2.7625570615
 H         -1.9871572151        0.3504169772       -4.8954561965
