77
       -105.32191605
 H          0.6801265943        4.7672053525        0.2695804312
 C          1.2767907107        3.8673652098        0.3067836628
 C          2.8567437993        1.5684551099        0.3966069364
 C          1.0700311293        2.8739939930       -0.6532060359
 C          2.2288182588        3.7403078819        1.2929938380
 C          3.0439084544        2.5912661858        1.3618600741
 C          1.8677582979        1.6976043447       -0.6157217239
 H          2.3675147085        4.5290106393        2.0167527957
 C          3.6837851084        0.4238508315        0.4375475202
 C          5.3636927615       -1.8793822888        0.5037903941
 C          3.5389045113       -0.6053484482       -0.5223480840
 C          4.6842796390        0.2948631535        1.4327555253
 C          5.4994045695       -0.8547770997        1.4421540462
 C          4.3829475735       -1.7368854704       -0.4681726113
 H          6.2536202318       -0.9258128381        2.2112348251
 H          4.2435914906       -2.4984140738       -1.2185651341
 C          4.0434260562        2.4437410242        2.3478777564
 H          4.1755941126        3.2309113202        3.0749548449
 C          4.8425839534        1.3273834493        2.3842897526
 H          5.6067548148        1.2315228625        3.1409928412
 C          1.7459746517        0.6522210542       -1.5615451883
 H          1.0049629960        0.7324795285       -2.3418145528
 C          2.5493531803       -0.4577088827       -1.5181693984
 H          2.4359461493       -1.2343733489       -2.2597572392
 C          6.2786258458       -3.0865536913        0.5828266404
 C          5.9960114815       -4.1093518635       -0.5186003892
 H          6.1546996008       -3.6819494963       -1.5061817157
 H          4.9824428316       -4.4983737979       -0.4483531055
 H          6.6779627506       -4.9482576661       -0.4108801146
 C          6.0761305717       -3.7671661827        1.9458264970
 H          6.3365821176       -3.1108120773        2.7714321721
 H          6.7080778197       -4.6484198118        2.0077057634
 H          5.0408381171       -4.0791801093        2.0666480916
 C          7.7336297283       -2.6117179874        0.4480001157
 H          7.8808889517       -2.0969920118       -0.4989385468
 H          8.3985896819       -3.4701259337        0.4773671349
 H          8.0196408134       -1.9401560238        1.2526347556
 C          0.0953849631        3.1483145859       -1.7626825349
 H          0.6865477981        3.3832085343       -2.6553775627
 H         -0.4604332197        4.0592559453       -1.5119456166
 H         -0.4731526094        2.2961223425       -4.2205177933
 C         -1.1102429047        1.8211208074       -3.4886742954
 C         -2.7932244511        0.6143915471       -1.6177325421
 C         -2.0955612953        0.9625720622       -3.9213267694
 C         -0.9205927475        2.1061843318       -2.1344897886
 C         -1.7700933111        1.4944422528       -1.1722939899
 C         -2.9633975586        0.3409687574       -2.9994503061
 C         -3.6710456956        0.0182562193       -0.6850508208
 C         -5.4518036669       -1.1678199519        1.2001415757
 C         -4.7063449875       -0.8450723757       -1.1219848031
 C         -3.5427014722        0.2845812113        0.6984991102
 C         -4.4362997002       -0.3162396307        1.6129199084
 C         -5.5719052360       -1.4171314767       -0.1681437755
 H         -4.3071313236       -0.0875736466        2.6586050171
 H         -6.3528671442       -2.0687515302       -0.5298984546
 C         -1.6667859473        1.7422232993        0.2170014871
 H         -0.9005899768        2.4116559892        0.5763237298
 C         -2.5185330633        1.1599838117        1.1196020905
 H         -2.4171596921        1.3755849323        2.1728154727
 C         -3.9981588109       -0.5244675743       -3.4157808468
 H         -4.1169407990       -0.7218472377       -4.4706172203
 C         -4.8475576408       -1.1022143892       -2.5041899226
 H         -5.6381978122       -1.7571385208       -2.8384216830
 C         -6.4215427458       -1.8243189950        2.1640854980
 C         -7.8468091894       -1.3723298022        1.8102051439
 H         -8.5511907869       -1.8177491237        2.5068722229
 H         -8.1326027463       -1.6746230740        0.8065880312
 H         -7.9326750569       -0.2902546651        1.8814296969
 C         -6.1404059437       -1.4543121417        3.6212020712
 H         -5.1470991110       -1.7756848902        3.9273271343
 H         -6.8601177880       -1.9554713168        4.2625146509
 H         -6.2439352140       -0.3840709903        3.7855036851
 C         -6.3061819436       -3.3496367975        2.0164210501
 H         -6.5746834768       -3.6840265659        1.0182836554
 H         -6.9761988788       -3.8331063477        2.7215039761
 H         -5.2909045551       -3.6780780599        2.2288327066
 H         -2.2198965412        0.7682056327       -4.9757853195
