77
       -105.32192164
 H          0.5660770975        4.5946289633        0.4212007834
 C          1.2054462186        3.7379789475        0.2638259979
 C          2.9087181894        1.5622072187       -0.1258541764
 C          1.0345993349        2.6057943298        1.0592228061
 C          2.1813019940        3.8068281830       -0.7079108809
 C          3.0605099173        2.7271972236       -0.9207663135
 C          1.8888775406        1.4841399572        0.8607680793
 H          2.2901939478        4.7014035538       -1.3021648536
 C          3.8038981503        0.4841433111       -0.3069660975
 C          5.6420390055       -1.6712701767       -0.6390263419
 C          3.6919301400       -0.6838286635        0.4821145520
 C          4.8422382727        0.5627452534       -1.2690569264
 C          5.7376734731       -0.5191910209       -1.4128034551
 C          4.6125059092       -1.7369886500        0.2966421871
 H          6.5168080361       -0.4243211278       -2.1521411613
 H          4.5007480615       -2.6141525998        0.9159359499
 C          4.0929463178        2.7824542197       -1.8832668366
 H          4.1956067199        3.6742217781       -2.4833023108
 C          4.9611349305        1.7316356470       -2.0523951785
 H          5.7512475463        1.7935321625       -2.7856446337
 C          1.7939998745        0.2986040642        1.6260064345
 H          1.0217060990        0.2154302186        2.3746228933
 C          2.6611243337       -0.7481007894        1.4448687450
 H          2.5674810171       -1.6366750043        2.0512733666
 C          6.6061760401       -2.8350174071       -0.7751576357
 C          7.6721768534       -2.5914920522       -1.8448999178
 H          8.2838863842       -1.7248608312       -1.6044478935
 H          7.2257832005       -2.4620032597       -2.8283572188
 H          8.3315155535       -3.4536513670       -1.8951779755
 C          5.8112762344       -4.0933667222       -1.1567097764
 H          5.0873660833       -4.3639007555       -0.3928816597
 H          6.4937630942       -4.9290150443       -1.2816489175
 H          5.2827888018       -3.9409321611       -2.0953249337
 C          7.3092180881       -3.0490446926        0.5740409722
 H          7.8472922698       -2.1514089576        0.8706308004
 H          8.0245109463       -3.8616341865        0.4857780545
 H          6.6067771330       -3.3056885572        1.3623650023
 C          0.0437781227        2.6664049062        2.1878278946
 H         -0.5185541000        3.6026063842        2.0976220989
 H          0.6230328274        2.7387389532        3.1152511124
 H         -0.4638958130        1.2953661479        4.4168030828
 C         -1.1233633076        0.9930705384        3.6160944036
 C         -2.8722504639        0.2373381455        1.5772589082
 C         -2.1074352846        0.0667924559        3.8791954441
 C         -0.9656021410        1.5652218621        2.3518874007
 C         -1.8438598491        1.1791038937        1.3028634301
 C         -3.0104496221       -0.3287108425        2.8707446775
 C         -3.7885667915       -0.1266030300        0.5654687360
 C         -5.6596693884       -0.8276953113       -1.4691081971
 C         -4.8322909346       -1.0456121037        0.8374483849
 C         -3.6924054841        0.4334553770       -0.7302662990
 C         -4.6302876915        0.0686867159       -1.7218858409
 C         -5.7425888547       -1.3740210802       -0.1871937210
 H         -4.5248329857        0.5178313387       -2.6963855209
 H         -6.5288485657       -2.0749199700        0.0492741308
 C         -1.7667846900        1.7150702203       -0.0045993810
 H         -0.9904580057        2.4274457346       -0.2361030848
 C         -2.6557188313        1.3569638343       -0.9850261841
 H         -2.5746550484        1.7910724507       -1.9704240194
 C         -4.0502764114       -1.2505271010        3.1202959248
 H         -4.1422957254       -1.6742112341        4.1091138829
 C         -4.9387111497       -1.5995697084        2.1329279185
 H         -5.7343450653       -2.2990912912        2.3412054455
 C         -6.6832422505       -1.2265531157       -2.5149194918
 C         -8.0793029240       -0.8311753403       -2.0089301910
 H         -8.1313887372        0.2408721631       -1.8316642671
 H         -8.3392844623       -1.3449467886       -1.0875994291
 H         -8.8225727946       -1.0904657637       -2.7573979516
 C         -6.6141400111       -2.7482296235       -2.7187432567
 H         -7.3238337095       -3.0429168384       -3.4863936167
 H         -6.8593340253       -3.2926400952       -1.8111518956
 H         -5.6183591011       -3.0453846173       -3.0410227403
 C         -6.4417613311       -0.5438060815       -3.8619927120
 H         -7.2022635182       -0.8664042597       -4.5676747317
 H         -5.4727492661       -0.8146177364       -4.2758335594
 H         -6.5117747460        0.5383084558       -3.7760236759
 H         -2.2062509810       -0.3521816444        4.8690692523
