77
       -105.32189186
 H          0.5776069420        4.6264806721        0.4125830077
 C          1.2101320240        3.7626083048        0.2675394134
 C          2.8934945306        1.5662014928       -0.0923751504
 C          1.0269217615        2.6415564860        1.0760229784
 C          2.1869407301        3.8096219040       -0.7044407946
 C          3.0536861214        2.7175998359       -0.9052613572
 C          1.8751542067        1.5120658054        0.8973473519
 H          2.3045027943        4.6952576945       -1.3103033629
 C          3.7780274268        0.4772055963       -0.2598341854
 C          5.5900368699       -1.7033671467       -0.5704696727
 C          3.6605259815       -0.6756963285        0.5503433101
 C          4.8104978519        0.5292725294       -1.2299788536
 C          5.6919205530       -0.5653319711       -1.3639537428
 C          4.5698164152       -1.7406990271        0.3769032120
 H          6.4654630290       -0.4916086790       -2.1115136513
 H          4.4560796393       -2.6044979094        1.0143502175
 C          4.0818620377        2.7475759220       -1.8733750643
 H          4.1914134536        3.6294397869       -2.4866746040
 C          4.9369014449        1.6844363855       -2.0322554322
 H          5.7226672586        1.7262190450       -2.7715629826
 C          1.7755296480        0.3417881671        1.6852345022
 H          1.0069638376        0.2784207281        2.4396186077
 C          2.6351929147       -0.7137601087        1.5203636041
 H          2.5391424421       -1.5896275934        2.1446112492
 C          6.5385102160       -2.8809883856       -0.6973628495
 C          7.2611821942       -3.0744159944        0.6445831882
 H          6.5683709501       -3.3022155659        1.4500748865
 H          7.8171010500       -2.1782695937        0.9111852222
 H          7.9630738023       -3.8993584472        0.5632720144
 C          7.5893461189       -2.6728036579       -1.7893505163
 H          8.2164300849       -1.8099735148       -1.5767355823
 H          7.1278091849       -2.5568305609       -2.7674983399
 H          8.2363956075       -3.5445342921       -1.8333875571
 C          5.7235602587       -4.1378855949       -1.0390454048
 H          5.1815987117       -3.9992776296       -1.9721039727
 H          5.0092838527       -4.3841352681       -0.2581574645
 H          6.3945488978       -4.9837991266       -1.1570946611
 C          0.0238828020        2.7189504450        2.1925018283
 H         -0.5329598775        3.6568293165        2.0863507378
 H          0.5909299670        2.7974205015        3.1268820313
 H         -0.5406964794        1.3892999482        4.4325333816
 C         -1.1804620617        1.0728055625        3.6214139097
 C         -2.8783211047        0.2791529408        1.5539434542
 C         -2.1701644090        0.1502282751        3.8765657142
 C         -0.9925837383        1.6234460264        2.3518660341
 C         -1.8465443480        1.2200383906        1.2892657541
 C         -3.0467668717       -0.2655047799        2.8530148836
 C         -3.7675679580       -0.1058804996        0.5258750088
 C         -5.5797870884       -0.8545946301       -1.5450134807
 C         -4.8126585936       -1.0267589365        0.7862334331
 C         -3.6421429589        0.4338886293       -0.7758807166
 C         -4.5516756456        0.0467070641       -1.7850717197
 C         -5.6929865291       -1.3795664300       -0.2565172870
 H         -4.4248796613        0.4820464841       -2.7632451740
 H         -6.4803175508       -2.0822080327       -0.0288565385
 C         -1.7417805900        1.7373353775       -0.0237749358
 H         -0.9647763654        2.4513183226       -0.2474943306
 C         -2.6052090071        1.3600081256       -1.0195224257
 H         -2.5032138557        1.7801838381       -2.0090042963
 C         -4.0891728604       -1.1872393720        3.0919471398
 H         -4.2052306788       -1.5936871228        4.0854722174
 C         -4.9497807876       -1.5585725064        2.0880857069
 H         -5.7467438763       -2.2590207730        2.2880424398
 C         -6.5695626293       -1.2808130285       -2.6123598606
 C         -6.4762770698       -2.8043287379       -2.7908815434
 H         -6.7374869455       -3.3380070496       -1.8813929571
 H         -5.4690049066       -3.0934324296       -3.0833526206
 H         -7.1624831827       -3.1196953839       -3.5715711999
 C         -6.2983713451       -0.6151721407       -3.9623922601
 H         -5.3145336122       -0.8791699938       -4.3443867756
 H         -6.3848406669        0.4670427946       -3.8950011681
 H         -7.0340291242       -0.9584987029       -4.6844148572
 C         -7.9839518197       -0.8953677858       -2.1519835123
 H         -8.2644684121       -1.3996191638       -1.2314607914
 H         -8.7022575622       -1.1737817172       -2.9177544583
 H         -8.0536317862        0.1782727292       -1.9914267764
 H         -2.2929774737       -0.2512284292        4.8710151078
