77
       -105.32187975
 H          0.5956230958        4.6568474836        0.2211399915
 C          1.2221041104        3.7783458295        0.2767499161
 C          2.8881431937        1.5437581101        0.4138626466
 C          1.0662910229        2.7701293374       -0.6736498176
 C          2.1656917654        3.6971179172        1.2787784437
 C          3.0240324716        2.5838653931        1.3687944423
 C          1.9049409283        1.6212741741       -0.6092811770
 H          2.2639190164        4.4986361228        1.9951241974
 C          3.7617269728        0.4349434577        0.4750936986
 C          5.5465885566       -1.7872180974        0.5803837701
 C          3.6665734474       -0.6087716838       -0.4741135909
 C          4.7604175044        0.3582368881        1.4783982332
 C          5.6295936931       -0.7538004839        1.5079521666
 C          4.5612517902       -1.6974261466       -0.3997846718
 H          6.3775817901       -0.7791440856        2.2841755728
 H          4.4642111979       -2.4763178852       -1.1409632142
 C          4.0201617172        2.4867993675        2.3655647003
 H          4.1127002518        3.2856403376        3.0860562916
 C          4.8655884373        1.4056212428        2.4196678528
 H          5.6268898534        1.3500967663        3.1832733148
 C          1.8293118767        0.5592679016       -1.5401549507
 H          1.0885994458        0.5973173717       -2.3236039408
 C          2.6771154364       -0.5166565285       -1.4771899612
 H          2.5994237483       -1.3074775583       -2.2083736543
 C          6.4779778588       -2.9850209857        0.5994916816
 C          7.2438528982       -3.0333774992       -0.7313536849
 H          6.5767821002       -3.1569328589       -1.5801517416
 H          7.9335338728       -3.8724692239       -0.7228539790
 H          7.8183614518       -2.1208531010       -0.8744358867
 C          5.6372545547       -4.2603362287        0.7664122241
 H          4.9476590820       -4.4036751666       -0.0610141871
 H          5.0648410200       -4.2218764834        1.6907965473
 H          6.2939726976       -5.1244617265        0.8079368362
 C          7.4930201118       -2.9204273083        1.7421281068
 H          8.1366145488       -2.0483062803        1.6517076050
 H          8.1283582428       -3.8011184834        1.7058630226
 H          6.9996301696       -2.9114602231        2.7115406918
 C          0.1067912412        2.9973664907       -1.8076761872
 H          0.7103039353        3.2006322433       -2.6995429312
 H         -0.4574784161        3.9132933231       -1.5985670398
 H         -0.3657472203        1.9903139561       -4.2289419472
 C         -1.0357764288        1.5665712646       -3.4948767865
 C         -2.8091262904        0.4981651710       -1.6238688808
 C         -2.0122337517        0.6907309898       -3.9131883058
 C         -0.8983555397        1.9356107114       -2.1549301845
 C         -1.7907328840        1.3904219317       -1.1918195811
 C         -2.9264956949        0.1397599038       -2.9915105068
 C         -3.7357673007       -0.0237821591       -0.6939283744
 C         -5.6234128450       -1.0488690283        1.1819470884
 C         -4.7681072838       -0.8961120305       -1.1197113963
 C         -3.6609428641        0.3286402733        0.6742702834
 C         -4.6070892695       -0.1932209359        1.5843940046
 C         -5.6863471294       -1.3885358204       -0.1705713340
 H         -4.5182889847        0.1004222546        2.6179993788
 H         -6.4623906439       -2.0507233090       -0.5236529682
 C         -1.7369265547        1.7193467705        0.1834971931
 H         -0.9706693349        2.3932259185        0.5335574095
 C         -2.6362919753        1.2089647245        1.0836161239
 H         -2.5726650938        1.4866384505        2.1251964412
 C         -3.9569970948       -0.7363805244       -3.3960522515
 H         -4.0340338688       -1.0002641532       -4.4401693760
 C         -4.8546831277       -1.2407604924       -2.4872507256
 H         -5.6423039363       -1.9035381778       -2.8130022252
 C         -6.6514450526       -1.6185096483        2.1406929732
 C         -6.4382355097       -1.1438300328        3.5788271060
 H         -6.5264485867       -0.0624038697        3.6560601713
 H         -5.4697004898       -1.4587589201        3.9613203187
 H         -7.2012799178       -1.5814554232        4.2165459873
 C         -6.5535032978       -3.1520333425        2.1121311129
 H         -5.5561761623       -3.4762865920        2.4018747874
 H         -6.7748257062       -3.5559885138        1.1282048051
 H         -7.2672317279       -3.5732782914        2.8142667499
 C         -8.0498761949       -1.1769304975        1.6821614040
 H         -8.1222504296       -0.0916019312        1.6697058312
 H         -8.7952708471       -1.5612973298        2.3724824349
 H         -8.2901979023       -1.5488851321        0.6900996162
 H         -2.0953966938        0.4308465018       -4.9575530877
