77
       -105.32183791
 H          0.6197444427        4.6699173829        0.4731712089
 C          1.2353533127        3.7820764599        0.4788291310
 C          2.8687854769        1.5195088890        0.4857549304
 C          1.0613964999        2.8272253230       -0.5255436177
 C          2.1805868748        3.6345283202        1.4688568898
 C          3.0238644515        2.5043400194        1.4950876351
 C          1.8832020736        1.6670746348       -0.5275392759
 H          2.2937615015        4.3943082952        2.2271898342
 C          3.7254456687        0.3961051386        0.4832547248
 C          5.4704396916       -1.8593875262        0.4572290319
 C          3.6125102857       -0.5948721989       -0.5201840188
 C          4.7250807670        0.2516957796        1.4771930502
 C          5.5730266291       -0.8735316317        1.4402168751
 C          4.4881114678       -1.7034507057       -0.5111046237
 H          6.3260617163       -0.9566483718        2.2092598766
 H          4.3722177881       -2.4358144222       -1.2938199728
 C          4.0208731376        2.3401695864        2.4810820098
 H          4.1273967723        3.0978394376        3.2428889509
 C          4.8501722848        1.2454393226        2.4738457294
 H          5.6129783259        1.1375212474        3.2303118064
 C          1.7907279852        0.6573812122       -1.5146692428
 H          1.0493938440        0.7492535909       -2.2930462162
 C          2.6221058219       -0.4326432974       -1.5127609106
 H          2.5305853514       -1.1814581172       -2.2853701061
 C          6.4208003549       -3.0411248279        0.4862871382
 C          7.8610612672       -2.5178146591        0.3742018087
 H          8.5514869891       -3.3564001530        0.3707563646
 H          8.1256178930       -1.8707689570        1.2058522260
 H          7.9940747614       -1.9611952596       -0.5509319619
 C          6.1691410723       -4.0238226881       -0.6582861336
 H          6.3154550569       -3.5500990481       -1.6264432265
 H          5.1675662470       -4.4453418807       -0.6063242140
 H          6.8757074205       -4.8459392979       -0.5854012341
 C          6.2385838383       -3.7852186321        1.8186446380
 H          6.4829546872       -3.1584777869        2.6716856062
 H          6.8939521748       -4.6510863204        1.8420144755
 H          5.2122419380       -4.1297444347        1.9263801875
 C          0.0982148986        3.1319552215       -1.6378354559
 H          0.6993376681        3.4010172320       -2.5139214594
 H         -0.4680716876        4.0290550269       -1.3627905204
 H         -0.3846421519        2.3026101684       -4.1249638384
 C         -1.0471311015        1.8230850754       -3.4189720859
 C         -2.8028964079        0.6086332263       -1.6214743118
 C         -2.0207903104        0.9703952072       -3.8941291656
 C         -0.9039179412        2.0946635752       -2.0588167768
 C         -1.7897584098        1.4761871860       -1.1312824622
 C         -2.9235856383        0.3471325345       -3.0104752410
 C         -3.7209056462        0.0141378153       -0.7269584727
 C         -5.5948821403       -1.1601132190        1.0740680486
 C         -4.7484373981       -0.8361909824       -1.2075829181
 C         -3.6414191158        0.2711616818        0.6612062932
 C         -4.5803532804       -0.3226189148        1.5312122821
 C         -5.6616956644       -1.4050971513       -0.2936897052
 H         -4.4942545289       -0.1039137002        2.5848594513
 H         -6.4309920439       -2.0458734103       -0.6939801539
 C         -1.7310408920        1.7090504225        0.2623851476
 H         -0.9686844878        2.3635777608        0.6554344900
 C         -2.6222444550        1.1294528443        1.1284814580
 H         -2.5561698537        1.3341778815        2.1866770479
 C         -3.9486253955       -0.5091044673       -3.4701741170
 H         -4.0286819379       -0.7001235969       -4.5298493739
 C         -4.8369319400       -1.0847325803       -2.5948384637
 H         -5.6195166763       -1.7310844122       -2.9629997348
 C         -6.5733972293       -1.7622661594        2.0652623887
 C         -7.3016685970       -0.6216988460        2.7924410667
 H         -7.8341237512        0.0058441452        2.0811721739
 H         -6.6159087408        0.0036871459        3.3575173882
 H         -8.0249497390       -1.0380273101        3.4876704743
 C         -5.7889106584       -2.6117580108        3.0772058633
 H         -5.2439244865       -3.4043786179        2.5688925200
 H         -6.4799668772       -3.0692875573        3.7792144035
 H         -5.0804252866       -2.0152893332        3.6455571453
 C         -7.6179411535       -2.6532472259        1.3906208222
 H         -8.2224466083       -2.0895718708        0.6836393886
 H         -8.2873613110       -3.0543527007        2.1466505713
 H         -7.1532225762       -3.4959279462        0.8834852567
 H         -2.1073637530        0.7859233759       -4.9541784020
