77
       -105.32182587
 H          0.7119876617        4.8178902013        0.1439409432
 C          1.2974561549        3.9121493326        0.2063375230
 C          2.8462519079        1.5956098882        0.3626060750
 C          1.0763204082        2.8939555209       -0.7240534655
 C          2.2495708791        3.8017502616        1.1944058125
 C          3.0487403179        2.6440098499        1.2968386569
 C          1.8593063510        1.7091029805       -0.6536023508
 H          2.3999520383        4.6095806611        1.8943394915
 C          3.6556590515        0.4402298729        0.4386541911
 C          5.2954172113       -1.8884582711        0.5797171802
 C          3.4947082421       -0.6155100940       -0.4892905485
 C          4.6539275843        0.3260272176        1.4379226370
 C          5.4497143212       -0.8361992586        1.4840151834
 C          4.3185416472       -1.7594525887       -0.3979719077
 H          6.2035431406       -0.8949601029        2.2545074750
 H          4.1665377781       -2.5417605046       -1.1241366851
 C          4.0469431779        2.5118223935        2.2863307421
 H          4.1916487280        3.3188727105        2.9888091795
 C          4.8290487093        1.3850438307        2.3568373630
 H          5.5921197050        1.3007918268        3.1160292954
 C          1.7240275227        0.6389639539       -1.5693644996
 H          0.9868362390        0.7083944236       -2.3543237988
 C          2.5096755629       -0.4816662813       -1.4915020747
 H          2.3855810268       -1.2778595460       -2.2103183270
 C          6.1881364871       -3.1088942549        0.6988319103
 C          5.8789633511       -4.1669367170       -0.3614121938
 H          4.8575424107       -4.5308669525       -0.2724422188
 H          6.5432795086       -5.0155695105       -0.2238439085
 H          6.0423918888       -3.7816276442       -1.3653772364
 C          5.9831985928       -3.7344161896        2.0875484804
 H          4.9427672864       -4.0201020246        2.2278528031
 H          6.2643105190       -3.0540697692        2.8864921409
 H          6.5973063499       -4.6258494335        2.1770902036
 C          7.6504304954       -2.6659103024        0.5368478281
 H          7.9528856786       -1.9676728968        1.3122560535
 H          7.8006736591       -2.1921906779       -0.4307936575
 H          8.3003426544       -3.5341834220        0.5969425161
 C          0.1016950381        3.1489731101       -1.8380027880
 H          0.6932046775        3.3681068276       -2.7345955756
 H         -0.4532776160        4.0648899441       -1.6037828453
 H         -0.4804163775        2.2698500670       -4.2824130695
 C         -1.1109019649        1.8000585244       -3.5415923110
 C         -2.7746173770        0.6038795089       -1.6466343590
 C         -2.0935023749        0.9307261906       -3.9584125837
 C         -0.9145986018        2.1012788406       -2.1917758681
 C         -1.7564191914        1.4976611493       -1.2176740485
 C         -2.9504763277        0.3126290948       -3.0240202031
 C         -3.6412587155        0.0107412576       -0.7016898018
 C         -5.3961012785       -1.1736579826        1.2085561342
 C         -4.6696866078       -0.8689218965       -1.1219722244
 C         -3.5077787909        0.2954373034        0.6777001214
 C         -4.3890776546       -0.3042801356        1.6046908618
 C         -5.5217773623       -1.4405906078       -0.1558992896
 H         -4.2569783079       -0.0607198237        2.6466384780
 H         -6.2966670039       -2.1062720256       -0.5048743893
 C         -1.6492673118        1.7656006729        0.1675506055
 H         -0.8886525729        2.4481582476        0.5140041905
 C         -2.4910203078        1.1872978806        1.0819729129
 H         -2.3871194084        1.4183539089        2.1316581575
 C         -3.9796898442       -0.5670485590       -3.4238613534
 H         -4.1035083431       -0.7772155149       -4.4756421844
 C         -4.8171067192       -1.1431882603       -2.5002430486
 H         -5.6030384934       -1.8099813428       -2.8218729587
 C         -6.3493280104       -1.8334150315        2.1866502803
 C         -6.0724332246       -1.4319653054        3.6362408381
 H         -6.7816069442       -1.9346333656        4.2880216654
 H         -6.1954651204       -0.3609649363        3.7810657225
 H         -5.0728981220       -1.7292677840        3.9463441327
 C         -6.1992658287       -3.3580728878        2.0643939085
 H         -5.1771275366       -3.6598471532        2.2834223419
 H         -6.4581928923       -3.7143850882        1.0712828916
 H         -6.8593503923       -3.8449627924        2.7764430969
 C         -7.7856353096       -1.4203848288        1.8302888798
 H         -7.8950013376       -0.3391878752        1.8788513296
 H         -8.4768618576       -1.8659736437        2.5399021821
 H         -8.0698474711       -1.7505251208        0.8350743510
 H         -2.2230845242        0.7236587670       -5.0098120937
