77
       -105.32181486
 H          0.6226862126        4.7227604008        0.0351868749
 C          1.2369943964        3.8385394624        0.1247224954
 C          2.8688071250        1.5857540659        0.3502692027
 C          1.0632273083        2.7945291739       -0.7831240202
 C          2.1818137317        3.7839117880        1.1272925355
 C          3.0220508969        2.6613289243        1.2623638370
 C          1.8862245995        1.6375723050       -0.6750522744
 H          2.2938833323        4.6123771305        1.8101651895
 C          3.7240704093        0.4661136513        0.4565747512
 C          5.4695352694       -1.7808338965        0.6545615176
 C          3.6115692266       -0.6133138432       -0.4498061942
 C          4.7210956877        0.4131753367        1.4630719689
 C          5.5706476416       -0.7117649368        1.5389571624
 C          4.4869187719       -1.7135002330       -0.3300772050
 H          6.3180258608       -0.7183180965        2.3161569694
 H          4.3769045049       -2.5199199486       -1.0393039166
 C          4.0167274410        2.5882197362        2.2625691118
 H          4.1227683222        3.4140076198        2.9500608245
 C          4.8438377677        1.4960169638        2.3610978618
 H          5.6039511657        1.4586738338        3.1269892578
 C          1.7947614471        0.5414575704       -1.5639373551
 H          1.0562159153        0.5611572263       -2.3501858649
 C          2.6248837973       -0.5446933550       -1.4574644997
 H          2.5350642741       -1.3623049957       -2.1571044878
 C          6.3783847248       -2.9939495030        0.7244170188
 C          7.1441253066       -3.1118880352       -0.6021115137
 H          7.7354519686       -2.2168357370       -0.7821933005
 H          6.4754160198       -3.2584191472       -1.4459497528
 H          7.8182133966       -3.9624389710       -0.5577174676
 C          5.5134613022       -4.2450766566        0.9427869267
 H          4.8211472887       -4.4088651362        0.1214356883
 H          4.9419978030       -4.1577759678        1.8644397672
 H          6.1534651613       -5.1192172587        1.0200941423
 C          7.3935747723       -2.9012511936        1.8649241626
 H          8.0531252153       -2.0455012735        1.7398214560
 H          8.0126610665       -3.7941726295        1.8657340475
 H          6.8995898450       -2.8434946589        2.8323578625
 C          0.1000101906        2.9884799913       -1.9198426536
 H          0.7003944125        3.1681759040       -2.8189988851
 H         -0.4648867279        3.9093886157       -1.7351545194
 H         -0.4031235445        1.9401238056       -4.3163471135
 C         -1.0586054519        1.5233443117       -3.5654302887
 C         -2.7923654468        0.4695416195       -1.6493324273
 C         -2.0326691138        0.6313052946       -3.9537697673
 C         -0.9042555685        1.9160876264       -2.2339815723
 C         -1.7781984269        1.3808983643       -1.2485020058
 C         -2.9261809597        0.0858774256       -3.0086140442
 C         -3.6980709031       -0.0472266848       -0.6961801743
 C         -5.5410176344       -1.0654995564        1.2270674770
 C         -4.7253488090       -0.9400935876       -1.0905180492
 C         -3.6067757883        0.3302504297        0.6642899788
 C         -4.5308639922       -0.1887627934        1.5983292803
 C         -5.6217758025       -1.4280747036       -0.1185653562
 H         -4.4299721470        0.1242040635        2.6251269743
 H         -6.3953046645       -2.1052113150       -0.4479906995
 C         -1.7091607846        1.7367848811        0.1193487916
 H         -0.9476311277        2.4280832161        0.4451568752
 C         -2.5883627615        1.2317276248        1.0420099572
 H         -2.5135152792        1.5299170474        2.0771445780
 C         -3.9518191579       -0.8096203271       -3.3818241439
 H         -4.0418011590       -1.0923996750       -4.4199441495
 C         -4.8286490853       -1.3095056640       -2.4504379792
 H         -5.6124444619       -1.9879763644       -2.7522428305
 C         -6.5453217502       -1.6327307354        2.2120646691
 C         -6.4348184064       -3.1655228881        2.2007593139
 H         -5.4294508294       -3.4779073999        2.4753523045
 H         -6.6715217580       -3.5840542272        1.2265891079
 H         -7.1313801609       -3.5837391302        2.9216638148
 C         -7.9556604963       -1.2082532462        1.7741001191
 H         -8.2116857624       -1.5967384661        0.7923457349
 H         -8.0366893114       -0.1237909065        1.7470426788
 H         -8.6847304463       -1.5878583430        2.4842061579
 C         -6.3091388372       -1.1385319855        3.6400529880
 H         -5.3292975311       -1.4374252618        4.0063442845
 H         -7.0538373725       -1.5777574467        4.2980283842
 H         -6.4089480089       -0.0574478651        3.7068814239
 H         -2.1292428531        0.3529121844       -4.9921870383
