77
       -105.32633201
 H         -0.3129391875        1.7296686557       -0.6323836635
 C          0.6847887112        1.3699250408       -0.4304717904
 C          3.2789594946        0.4701635391        0.0874329236
 C          1.0702203916        0.1234400599       -0.9153833182
 C          1.5488153688        2.1642305765        0.2929956103
 C          2.8645981402        1.7398977126        0.5650268741
 C          2.3861845653       -0.3511028347       -0.6511088648
 H          1.2227852591        3.1284853276        0.6525649511
 C          4.5964323390        0.0321629697        0.3488273308
 C          7.2588107439       -0.8519339252        0.8623375684
 C          5.0417716590       -1.2284583615       -0.1137614827
 C          5.4961321695        0.8511640910        1.0748153947
 C          6.8068100858        0.3886881356        1.3131439618
 C          6.3649313566       -1.6449445763        0.1544300484
 H          7.4708586032        1.0346298482        1.8674888664
 H          6.6667334006       -2.6124108742       -0.2136828812
 C          3.7747195822        2.5408438081        1.2899845808
 H          3.4466059857        3.5054101762        1.6474049537
 C          5.0551474220        2.1112048778        1.5374144904
 H          5.7402383604        2.7366651360        2.0898950847
 C          2.8579752958       -1.6098643653       -1.0966669155
 H          2.2030067236       -2.2597277020       -1.6553617431
 C          4.1369110605       -2.0336229490       -0.8375609023
 H          4.4654915844       -2.9987877881       -1.1931819277
 C          8.6844184516       -1.2779783432        1.1571774157
 C          8.8860181446       -1.3059774849        2.6803255717
 H          9.8954180194       -1.6376415391        2.9060099303
 H          8.1867410898       -1.9976882273        3.1451754787
 H          8.7489618703       -0.3252877931        3.1273528496
 C          9.6427778682       -0.2581336944        0.5225406023
 H          9.5084785774        0.7379911290        0.9350914844
 H          9.4895604036       -0.2088139370       -0.5533575878
 H         10.6692041904       -0.5613238045        0.7079591791
 C          9.0095742577       -2.6641586754        0.5983770223
 H          8.9109570559       -2.6880894839       -0.4846586931
 H          8.3736312863       -3.4285209218        1.0395968577
 H         10.0390270181       -2.9145462831        0.8393450953
 C          0.1234557886       -0.7108471735       -1.7356798303
 H         -0.0242469036       -1.6741688811       -1.2383717690
 H          0.6119084384       -0.9190064631       -2.6933269915
 H         -0.5408497035        0.6727561491       -3.9088707737
 C         -1.3786547245        0.5859701408       -3.2329521158
 C         -3.5634929605        0.3482258754       -1.5109589203
 C         -2.5951241131        1.1251443180       -3.6009337822
 C         -1.2069439066       -0.0800456169       -2.0240080960
 C         -2.3041594156       -0.1812735914       -1.1218009050
 C         -3.7176559983        1.0036724116       -2.7595575129
 C         -4.6816301092        0.2200464765       -0.6571002053
 C         -6.9489625182       -0.0810383417        1.0456670639
 C         -5.9483702271        0.7232295072       -1.0466871225
 C         -4.5566722093       -0.4194628918        0.5977309715
 C         -5.6937382339       -0.5538980302        1.4225196194
 C         -7.0547681813        0.5585779452       -0.1846657583
 H         -5.5659655833       -1.0473186812        2.3741988895
 H         -8.0041999813        0.9485681150       -0.5149389804
 C         -2.2019620005       -0.7897221731        0.1521374740
 H         -1.2486716443       -1.1668824062        0.4884057098
 C         -3.2876985168       -0.9044259718        0.9825686978
 H         -3.1800828700       -1.3779696253        1.9470670461
 C         -4.9849973945        1.5115964595       -3.1244506233
 H         -5.0888869784        2.0114113270       -4.0758927932
 C         -6.0709015484        1.3717460118       -2.2949636205
 H         -7.0340895297        1.7582224775       -2.5927754729
 C         -8.1326799544       -0.2784092183        1.9740430263
 C         -9.4313732007        0.2867477042        1.3965716287
 H         -9.3623309330        1.3609120516        1.2399240204
 H        -10.2415870259        0.1093859255        2.0984985156
 H         -9.6947212881       -0.2021789164        0.4612539283
 C         -7.8400509299        0.4313558646        3.3050481698
 H         -8.6901246647        0.3165262377        3.9713647343
 H         -7.6747245816        1.4941895377        3.1422450832
 H         -6.9665973342        0.0185625155        3.8023782304
 C         -8.3209666026       -1.7842729971        2.2148216016
 H         -8.4916205408       -2.3025713360        1.2737267869
 H         -9.1846732617       -1.9443461169        2.8537123072
 H         -7.4577960992       -2.2297492649        2.7017907648
 H         -2.6985139084        1.6309558739       -4.5489206783
