77
       -105.32181391
 H          0.6267281022        4.7050899461        0.3836868231
 C          1.2414069559        3.8168876272        0.4061188624
 C          2.8738718979        1.5540363240        0.4609949412
 C          1.0658619124        2.8429662248       -0.5762003084
 C          2.1887591140        3.6887731982        1.3995756146
 C          3.0294858826        2.5595743811        1.4493875074
 C          1.8892145016        1.6814025306       -0.5557360659
 H          2.3023663285        4.4645870261        2.1414894564
 C          3.7286943247        0.4292406126        0.4831210344
 C          5.4701180706       -1.8293369434        0.5149205320
 C          3.6135613966       -0.5808648123       -0.4996171331
 C          4.7276573952        0.3020759867        1.4810283592
 C          5.5753502234       -0.8267910759        1.4736216571
 C          4.4870177324       -1.6883925518       -0.4614055148
 H          6.3244985822       -0.8905648113        2.2465163497
 H          4.3749732785       -2.4405966541       -1.2276045354
 C          4.0267592935        2.4132893595        2.4389384169
 H          4.1349665589        3.1865778495        3.1846857607
 C          4.8535076509        1.3165077110        2.4552810418
 H          5.6154365333        1.2229428023        3.2145363929
 C          1.7961398127        0.6540648403       -1.5231372682
 H          1.0566258002        0.7320867699       -2.3048207922
 C          2.6257336643       -0.4374209000       -1.4982366766
 H          2.5344064497       -1.2011815276       -2.2561142436
 C          6.3751376723       -3.0471828782        0.4967324529
 C          5.5061434687       -4.3079199650        0.6250900094
 H          4.8104153670       -4.4081363002       -0.2035673844
 H          4.9380347482       -4.2869605675        1.5526892385
 H          6.1430758087       -5.1876474623        0.6353060691
 C          7.3909189541       -3.0401771378        1.6404843481
 H          8.0544922610       -2.1808360706        1.5760953215
 H          8.0057652694       -3.9338290250        1.5777802353
 H          6.8973640102       -3.0488162072        2.6098278572
 C          7.1400636667       -3.0720773219       -0.8352947665
 H          6.4707269915       -3.1574243385       -1.6869869866
 H          7.8127080585       -3.9247700185       -0.8515917287
 H          7.7328693786       -2.1675519957       -0.9519566825
 C          0.1003066340        3.1205907985       -1.6934960246
 H          0.6989798752        3.3664327804       -2.5780245748
 H         -0.4640550551        4.0252585189       -1.4398685337
 H         -0.4025164177        2.2474673322       -4.1594456780
 C         -1.0587405750        1.7784518528       -3.4406628358
 C         -2.7944735424        0.5914475538       -1.6059831670
 C         -2.0334120580        0.9175313420       -3.8925109655
 C         -0.9047008089        2.0744170891       -2.0843799186
 C         -1.7796020786        1.4706209083       -1.1402659530
 C         -2.9279810753        0.3065895182       -2.9893759280
 C         -3.7011228207        0.0083377436       -0.6928320489
 C         -5.5445056660       -1.1457950685        1.1516724175
 C         -4.7290687557       -0.8528131445       -1.1508240078
 C         -3.6100094311        0.2867431474        0.6913348498
 C         -4.5342945564       -0.2982554822        1.5853817909
 C         -5.6260104614       -1.4091249030       -0.2167970020
 H         -4.4333576379       -0.0604662847        2.6321457685
 H         -6.4003986197       -2.0595517527       -0.5944803374
 C         -1.7109309248        1.7272414084        0.2496670740
 H         -0.9489241955        2.3925961076        0.6246795334
 C         -2.5910628540        1.1579359172        1.1332539252
 H         -2.5164528689        1.3808796680        2.1871808250
 C         -3.9543622363       -0.5586360354       -3.4264797963
 H         -4.0440644377       -0.7659567347       -4.4822814943
 C         -4.8322109562       -1.1232214074       -2.5338384492
 H         -5.6165331270       -1.7774285969       -2.8839744954
 C         -6.5481352245       -1.7838708898        2.0930555531
 C         -7.9582390001       -1.3235482713        1.6921237125
 H         -8.6871059237       -1.7570711477        2.3708847706
 H         -8.2160070213       -1.6323756935        0.6829097884
 H         -8.0371928479       -0.2402196887        1.7513488673
 C         -6.3071895559       -1.4007525708        3.5539623240
 H         -5.3264835035       -1.7276362012        3.8930719254
 H         -7.0503442680       -1.8885434503        4.1786378551
 H         -6.4057168027       -0.3279180692        3.7038573286
 C         -6.4420402515       -3.3116308723        1.9646349230
 H         -6.6866855561       -3.6545050328        0.9632649648
 H         -7.1348726741       -3.7818322777        2.6565163566
 H         -5.4357247460       -3.6462661013        2.2077273735
 H         -2.1296273183        0.7144378915       -4.9482741794
