77
       -105.32168902
 H          0.6813425506        4.7801670511        0.3710805906
 C          1.2762720476        3.8789116497        0.4009247643
 C          2.8541758335        1.5781251063        0.4775589135
 C          1.0804353646        2.9019493978       -0.5747612138
 C          2.2180069762        3.7361733602        1.3975367900
 C          3.0302819385        2.5867799610        1.4593765668
 C          1.8782334398        1.7227293669       -0.5452173808
 H          2.3481006847        4.5146849682        2.1338833623
 C          3.6794250634        0.4317903910        0.5129401232
 C          5.3570607969       -1.8738406053        0.5753563422
 C          3.5439612427       -0.5821572233       -0.4632233828
 C          4.6681273859        0.2856490210        1.5184405414
 C          5.4838015157       -0.8665207153        1.5264597788
 C          4.3862359462       -1.7129326103       -0.4100784769
 H          6.2252833030       -0.9448806400        2.3053802985
 H          4.2594333705       -2.4674864622       -1.1716420462
 C          4.0186059665        2.4227570532        2.4550110921
 H          4.1435411375        3.1992141150        3.1948227993
 C          4.8156906232        1.3044731679        2.4850402395
 H          5.5705991873        1.1969271743        3.2494380383
 C          1.7668857446        0.6929132450       -1.5079578257
 H          1.0363705608        0.7859812556       -2.2965904357
 C          2.5680751768       -0.4191629960       -1.4705828210
 H          2.4631334340       -1.1846731299       -2.2249204772
 C          6.2262130029       -3.1176885477        0.5749286178
 C          7.2294300797       -3.1324645991        1.7296477122
 H          7.9188646659       -2.2936453943        1.6667080323
 H          7.8182107224       -4.0442870963        1.6797272612
 H          6.7253641311       -3.1195486298        2.6935294475
 C          7.0041112207       -3.1742625909       -0.7485109024
 H          7.6273994923       -2.2901785335       -0.8628951746
 H          6.3414626053       -3.2417938397       -1.6070261859
 H          7.6486161910       -4.0485591562       -0.7535102151
 C          5.3191448611       -4.3514617872        0.7023742102
 H          4.7379574824       -4.3046616863        1.6209086554
 H          5.9300269919       -5.2490711708        0.7310259323
 H          4.6334985254       -4.4401772142       -0.1359379485
 C          0.1204141855        3.1932873094       -1.6928371166
 H          0.7236329436        3.4459369452       -2.5725576491
 H         -0.4410553375        4.0983582798       -1.4335305985
 H         -0.4108841633        2.3878434329       -4.1738027158
 C         -1.0568221068        1.8967377616       -3.4605837038
 C         -2.7618566436        0.6481302672       -1.6378092000
 C         -2.0326195952        1.0434173821       -3.9239564700
 C         -0.8875717897        2.1561796030       -2.0985031855
 C         -1.7490759760        1.5235787031       -1.1607391783
 C         -2.9108628454        0.4005611605       -3.0268278392
 C         -3.6502180284        0.0302189211       -0.7295947238
 C         -5.4509861008       -1.2016938314        1.1065621479
 C         -4.6743414468       -0.8299514013       -1.1979406586
 C         -3.5435102024        0.2709299593        0.6604874047
 C         -4.4471093328       -0.3517897530        1.5501452713
 C         -5.5496120378       -1.4257565019       -0.2677794307
 H         -4.3349317966       -0.1418315394        2.6017001941
 H         -6.3206763496       -2.0756435536       -0.6531132344
 C         -1.6675860841        1.7458593501        0.2343268703
 H         -0.9099329566        2.4117703728        0.6174251470
 C         -2.5302439315        1.1433329880        1.1130121120
 H         -2.4457969136        1.3399378017        2.1714251786
 C         -3.9353772864       -0.4612892546       -3.4746952243
 H         -4.0382160752       -0.6385310715       -4.5347696730
 C         -4.7946144182       -1.0608640672       -2.5867291673
 H         -5.5770912087       -1.7129493799       -2.9448632334
 C         -6.4287233781       -1.8845948083        2.0437361461
 C         -6.1789345415       -1.5310529508        3.5106131337
 H         -6.2975000880       -0.4642393968        3.6866968860
 H         -5.1880633033       -1.8455278339        3.8313780092
 H         -6.9048217381       -2.0485880692        4.1316391101
 C         -6.2872863143       -3.4057968583        1.8765466789
 H         -6.9648742099       -3.9095171963        2.5598741961
 H         -5.2719146814       -3.7222966478        2.1059757651
 H         -6.5290829054       -3.7288890386        0.8678818117
 C         -7.8543534335       -1.4492717023        1.6712901529
 H         -7.9571045606       -0.3693808726        1.7524591439
 H         -8.5633820404       -1.9121150950        2.3517002430
 H         -8.1199559450       -1.7450324681        0.6602407470
 H         -2.1411004238        0.8691316721       -4.9836626472
