77
       -105.32172446
 H          0.6441968363        4.7502396646        0.3808087543
 C          1.2471073442        3.8540544609        0.4029042002
 C          2.8434603499        1.5655434119        0.4548302807
 C          1.0564894227        2.8816391190       -0.5815615382
 C          2.1917003503        3.7119301363        1.3942088699
 C          3.0151769180        2.5679216090        1.4440557731
 C          1.8621792833        1.7102500891       -0.5629869674
 H          2.3182193879        4.4851508374        2.1366736881
 C          3.6783461593        0.4261063987        0.4777252918
 C          5.3722751427       -1.8677419265        0.5093261071
 C          3.5486419531       -0.5829794065       -0.5054246594
 C          4.6717662723        0.2824310630        1.4779916596
 C          5.4945861652       -0.8617943954        1.4694603590
 C          4.3991094114       -1.7103797268       -0.4679366774
 H          6.2438170743       -0.9437569011        2.2423220910
 H          4.2708727463       -2.4565408334       -1.2355513377
 C          4.0080477242        2.4061179447        2.4345477116
 H          4.1286238744        3.1780797094        3.1797274160
 C          4.8153199901        1.2951542489        2.4528255527
 H          5.5743512058        1.1883545630        3.2132298345
 C          1.7563200292        0.6851863772       -1.5326964564
 H          1.0218018982        0.7775369909       -2.3175958284
 C          2.5669707798       -0.4200089215       -1.5065507336
 H          2.4653924872       -1.1808552027       -2.2660366488
 C          6.2935697931       -3.0710806326        0.5708554784
 C          6.0913927971       -3.7763446136        1.9212378596
 H          6.3456607774       -3.1331529204        2.7590260020
 H          6.7284520809       -4.6547565050        1.9696399825
 H          5.0576776047       -4.0966185697        2.0336542155
 C          7.7460627123       -2.5851411515        0.4484465548
 H          8.0252614361       -1.9254953206        1.2652603037
 H          7.8929057999       -2.0535066431       -0.4891710140
 H          8.4161911641       -3.4398564460        0.4652845174
 C          6.0199970115       -4.0765217351       -0.5486905761
 H          5.0071749706       -4.4694634531       -0.4901645028
 H          6.7038239416       -4.9151293221       -0.4509395868
 H          6.1827043853       -3.6327608365       -1.5283569596
 C          0.0906131741        3.1763067054       -1.6937369682
 H          0.6891535322        3.4389751609       -2.5736866992
 H         -0.4752723224        4.0758630050       -1.4253246365
 H         -0.4319061905        2.3646848414       -4.1768655211
 C         -1.0774996082        1.8736414599       -3.4632656621
 C         -2.7857037964        0.6240429396       -1.6439778366
 C         -2.0512540614        1.0153644593       -3.9277428373
 C         -0.9122972447        2.1356755992       -2.1035991770
 C         -1.7759528932        1.5019433009       -1.1653471264
 C         -2.9295194012        0.3732407904       -3.0327760766
 C         -3.6765562723        0.0069639696       -0.7373638699
 C         -5.4874283432       -1.2240075434        1.0901136010
 C         -4.6990905249       -0.8561828775       -1.2056651213
 C         -3.5736298977        0.2523012492        0.6513646557
 C         -4.4818170709       -0.3691523480        1.5345107061
 C         -5.5808312132       -1.4532080537       -0.2788548603
 H         -4.3784352917       -0.1587152291        2.5882860803
 H         -6.3467534972       -2.1037054323       -0.6698385110
 C         -1.6973202466        1.7274956889        0.2284951807
 H         -0.9407472494        2.3942032250        0.6123125226
 C         -2.5622530322        1.1262920975        1.1063019697
 H         -2.4808520869        1.3250736814        2.1645577928
 C         -3.9518350393       -0.4923879582       -3.4806388206
 H         -4.0511998310       -0.6731476467       -4.5404837385
 C         -4.8130700549       -1.0907419763       -2.5935008712
 H         -5.5932313626       -1.7451189535       -2.9525241682
 C         -6.4282134532       -1.8610156085        2.0959680959
 C         -7.4639810183       -2.7721829017        1.4349050342
 H         -6.9885980531       -3.5956930709        0.9065565141
 H         -8.1002513915       -2.2171246117        0.7493485237
 H         -8.1040949574       -3.2004233638        2.2013571125
 C         -7.1690673665       -0.7472131913        2.8512512076
 H         -7.8654471434       -1.1891815571        3.5580232381
 H         -7.7334979650       -0.1266967740        2.1587440582
 H         -6.4870014028       -0.1098491576        3.4073509447
 C         -5.5997744081       -2.7002735541        3.0811137625
 H         -5.0460931228       -3.4732189340        2.5522854222
 H         -6.2629917101       -3.1828268579        3.7931475881
 H         -4.8943648930       -2.0916402440        3.6403290198
 H         -2.1556701937        0.8390651244       -4.9875679002
