77
       -105.32171238
 H          0.5484894814        4.6141702270        0.2742212995
 C          1.1858404540        3.7430236207        0.3219953195
 C          2.8828416583        1.5308650306        0.4372300464
 C          1.0466809689        2.7443231764       -0.6408582271
 C          2.1271744182        3.6626868838        1.3263265991
 C          3.0010285427        2.5608283973        1.4053805554
 C          1.9003787881        1.6060829546       -0.5868604442
 H          2.2122005517        4.4570363487        2.0522909503
 C          3.7740679847        0.4355297675        0.4857084522
 C          5.5999885065       -1.7543683108        0.5599013508
 C          3.6978615994       -0.5965871862       -0.4777583300
 C          4.7725418404        0.3619196568        1.4894880485
 C          5.6616557879       -0.7346275725        1.5040636522
 C          4.6132860334       -1.6688011956       -0.4193106176
 H          6.4081449812       -0.7586143936        2.2817867812
 H          4.5316429639       -2.4379470794       -1.1724243101
 C          3.9958676074        2.4658705480        2.4037024817
 H          4.0738729543        3.2562375964        3.1351813637
 C          4.8582530489        1.3976308167        2.4455031644
 H          5.6185300635        1.3439729499        3.2102639616
 C          1.8412588414        0.5535379905       -1.5296266416
 H          1.0992587030        0.5881793491       -2.3118486547
 C          2.7066954838       -0.5089653969       -1.4794758456
 H          2.6416980453       -1.2923348920       -2.2198508827
 C          6.5578664564       -2.9311899951        0.5576149937
 C          5.7476368357       -4.2310314142        0.6783265312
 H          5.1608792360       -4.2313922712        1.5944598539
 H          6.4255752186       -5.0791244538        0.7076354659
 H          5.0744738576       -4.3707490992       -0.1630318935
 C          7.5586296582       -2.8751817528        1.7131972649
 H          7.0539885629       -2.9011248757        2.6765197475
 H          8.1852143227       -1.9882174343        1.6528805776
 H          8.2125333385       -3.7414121801        1.6618610493
 C          7.3386800461       -2.9219881207       -0.7655755995
 H          7.8987371915       -1.9955099040       -0.8716761657
 H          6.6821935464       -3.0275572945       -1.6250792478
 H          8.0425331687       -3.7491858608       -0.7775623981
 C          0.0897828571        2.9740404568       -1.7768536080
 H          0.6955157952        3.1896743016       -2.6642516991
 H         -0.4823578868        3.8835739416       -1.5617219708
 H         -0.3492639561        1.9643141817       -4.2047300750
 C         -1.0260038571        1.5389479653       -3.4777517433
 C         -2.8222255023        0.4670116351       -1.6308210319
 C         -1.9965842438        0.6593514717       -3.9084348871
 C         -0.9058289137        1.9077953874       -2.1385729814
 C         -1.8100293771        1.3594695323       -1.1851085440
 C         -2.9207382179        0.1080702250       -2.9996055510
 C         -3.7621354097       -0.0541568524       -0.7135651719
 C         -5.6863705736       -1.0721370663        1.1293188073
 C         -4.7905962078       -0.9259941910       -1.1518440469
 C         -3.7047896771        0.3000386677        0.6541488821
 C         -4.6676918080       -0.2185631668        1.5458051437
 C         -5.7288179236       -1.4163454073       -0.2178468219
 H         -4.5972605342        0.0724217527        2.5830104991
 H         -6.4977358785       -2.0765327974       -0.5860465822
 C         -1.7718248022        1.6873965201        0.1900911858
 H         -1.0083602343        2.3589729771        0.5503261570
 C         -2.6837446116        1.1780355084        1.0785849318
 H         -2.6331012486        1.4551102014        2.1210440927
 C         -3.9458896521       -0.7698999716       -3.4162498044
 H         -4.0083326816       -1.0359554527       -4.4608237313
 C         -4.8564327252       -1.2725777524       -2.5191582131
 H         -5.6395387116       -1.9356417811       -2.8550867383
 C         -6.6955974770       -1.5839680301        2.1402497092
 C         -7.7414819018       -2.5053098395        1.5099352378
 H         -8.4356827542       -2.8358724609        2.2776677966
 H         -7.2816680066       -3.3921402150        1.0794165869
 H         -8.3186923013       -1.9865201107        0.7478707412
 C         -7.4185412588       -0.3805109749        2.7641311284
 H         -8.1637338292       -0.7316916273        3.4720661202
 H         -7.9243807297        0.2007865804        1.9963532124
 H         -6.7336788897        0.2740883073        3.2962788893
 C         -5.9484141259       -2.3683862432        3.2299399604
 H         -5.4029420468       -3.2025215477        2.7937258349
 H         -6.6630428951       -2.7652310104        3.9451605880
 H         -5.2454186316       -1.7416962593        3.7719482521
 H         -2.0654647792        0.3999009034       -4.9539938708
