77
       -105.32165847
 H          0.6022143635        4.6752691525        0.0251722364
 C          1.2255304684        3.7963653114       -0.0542448403
 C          2.8831751940        1.5599440972       -0.2497749262
 C          1.0355206137        2.7442936774        0.8409184749
 C          2.1979999715        3.7570705852       -1.0308268861
 C          3.0520848245        2.6432272082       -1.1498647063
 C          1.8704342059        1.5947517126        0.7465428780
 H          2.3218905086        4.5916139398       -1.7042048368
 C          3.7533965398        0.4502651639       -0.3376233227
 C          5.5339551761       -1.7724327984       -0.4917047065
 C          3.6263557762       -0.6357195316        0.5589133993
 C          4.7806705149        0.4147254825       -1.3140354666
 C          5.6466760015       -0.6989070179       -1.3691633793
 C          4.5199110591       -1.7233651378        0.4617144017
 H          6.4166132774       -0.6926152778       -2.1240283614
 H          4.3988368573       -2.5346393695        1.1635293346
 C          4.0755586845        2.5864753376       -2.1217008137
 H          4.1923648136        3.4173821447       -2.8012325973
 C          4.9170275776        1.5038175479       -2.2024451849
 H          5.6993474881        1.4793342545       -2.9461691479
 C          1.7622632435        0.4903294572        1.6232689186
 H          0.9983792286        0.4955159602        2.3850211235
 C          2.6075114122       -0.5857579847        1.5351766585
 H          2.5049078921       -1.4096886014        2.2255709395
 C          6.4634573148       -2.9709724106       -0.5354554030
 C          7.5091152354       -2.8619757491       -1.6465698930
 H          7.0419396441       -2.8124648840       -2.6276358999
 H          8.1423754527       -3.7447247975       -1.6290549250
 H          8.1509986309       -1.9957244420       -1.5035260405
 C          5.6260068210       -4.2364108251       -0.7773849273
 H          5.0777417682       -4.1579744589       -1.7137661734
 H          4.9152160002       -4.4130699993        0.0252325652
 H          6.2827412322       -5.0993748678       -0.8381608425
 C          7.1924747183       -3.0755879296        0.8127537699
 H          7.7636638641       -2.1708820945        1.0090977128
 H          7.8812937330       -3.9150611841        0.7887964205
 H          6.5019946537       -3.2324150545        1.6370175039
 C          0.0420395780        2.9233106023        1.9540043516
 H         -0.5175115907        3.8468032699        1.7663809578
 H          0.6182669009        3.0903261712        2.8711563718
 H         -0.5129351776        1.8266767264        4.3185577698
 C         -1.1544625851        1.4295635856        3.5452248625
 C         -2.8579528571        0.4260492375        1.5758343392
 C         -2.1432879085        0.5351060515        3.8962004145
 C         -0.9710899317        1.8477163220        2.2277557711
 C         -1.8288637552        1.3364075309        1.2127203231
 C         -3.0211860238        0.0167638442        2.9241790877
 C         -3.7497440301       -0.0636532430        0.5953784309
 C         -5.5720841458       -1.0247215275       -1.3769853445
 C         -4.7944439034       -0.9538281947        0.9506069136
 C         -3.6266930313        0.3399286368       -0.7541679501
 C         -4.5396505855       -0.1517632488       -1.7110751280
 C         -5.6819439725       -1.4143713971       -0.0460905263
 H         -4.4188368726        0.1760622945       -2.7325031744
 H         -6.4658375240       -2.0886562940        0.2597273708
 C         -1.7272162042        1.7172054313       -0.1454623282
 H         -0.9522352434        2.4063233996       -0.4425988738
 C         -2.5920021926        1.2379118428       -1.0955328179
 H         -2.4930426775        1.5544119584       -2.1231820369
 C         -4.0623532105       -0.8775170440        3.2580481473
 H         -4.1748910809       -1.1814065882        4.2880100959
 C         -4.9259781691       -1.3493506842        2.2997892788
 H         -5.7217408445       -2.0260518472        2.5729237548
 C         -6.5216233501       -1.5095807589       -2.4566712455
 C         -7.5995361504       -2.4480922117       -1.9115179509
 H         -7.1632739878       -3.3456083366       -1.4786921441
 H         -8.2478044351       -2.7591202656       -2.7261448767
 H         -8.2204052629       -1.9497478584       -1.1704165396
 C         -5.7100645992       -2.2646851932       -3.5208709779
 H         -6.3800690539       -2.6399710993       -4.2890025711
 H         -5.1920648574       -3.1117199106       -3.0759551082
 H         -4.9751895061       -1.6241261145       -4.0010229426
 C         -7.2107674251       -0.2916695148       -3.0904549718
 H         -7.9172586025       -0.6260987198       -3.8446478990
 H         -6.4992833573        0.3742811717       -3.5710065652
 H         -7.7568895515        0.2724504418       -2.3376307001
 H         -2.2616548189        0.2372373775        4.9269814463
