77
       -105.32161119
 H          0.3176000914        3.9506742082        1.3373598974
 C          1.0456664500        3.2256368020        1.0020212668
 C          3.0071331503        1.4135108063        0.1966948168
 C          1.0052744635        1.9304746384        1.5135395701
 C          2.0100131036        3.6262871190        0.1002973113
 C          3.0193501591        2.7366825201       -0.3137837475
 C          1.9880294519        0.9902498934        1.0924242330
 H          2.0132175896        4.6391607112       -0.2731270158
 C          4.0425980193        0.5251929297       -0.1710318386
 C          6.1809023979       -1.2389627113       -0.8435559338
 C          4.0729547860       -0.7937838733        0.3375369696
 C          5.0831319734        0.9486061802       -1.0359162687
 C          6.1283829920        0.0540605122       -1.3533974705
 C          5.1412397655       -1.6473088676       -0.0111947476
 H          6.9047192885        0.4107886681       -2.0112139251
 H          5.1376670558       -2.6463403294        0.3979596109
 C          4.0503741423        3.1331052276       -1.1948794881
 H          4.0419881713        4.1404548744       -1.5834747881
 C          5.0558586471        2.2655820796       -1.5446493223
 H          5.8440938719        2.5879122226       -2.2083904854
 C          2.0265046489       -0.3450509210        1.5575470487
 H          1.2479481985       -0.6968860937        2.2148529665
 C          3.0305947106       -1.2064441947        1.1956481922
 H          3.0378826447       -2.2163085940        1.5780515042
 C          7.3158157749       -2.1979862150       -1.1510344133
 C          8.0042963653       -2.5742987429        0.1702866994
 H          7.3252032505       -3.0780604990        0.8528610708
 H          8.3933491626       -1.6865432878        0.6641863244
 H          8.8351934278       -3.2442670728       -0.0311421222
 C          8.3614810058       -1.5889350795       -2.0867463046
 H          7.9280919191       -1.3269742476       -3.0494275764
 H          9.1467777959       -2.3176993748       -2.2679437376
 H          8.8258629798       -0.7105316808       -1.6441317164
 C          6.7396168333       -3.4566432537       -1.8173756425
 H          7.5487410749       -4.1370503739       -2.0666364837
 H          6.2168184705       -3.1970625279       -2.7353884805
 H          6.0495639971       -3.9834941021       -1.1641208060
 C          0.0157429801        1.6142402160        2.6032796080
 H         -0.5577450452        2.5230059804        2.8130451851
 H          0.5943803728        1.3871302582        3.5045400322
 H         -0.2879325774       -0.5660473038        4.1201305379
 C         -1.0209092904       -0.5366252142        3.3263494140
 C         -2.9911032450       -0.4292812963        1.3549956376
 C         -1.9896519662       -1.5151835961        3.2848876968
 C         -0.9802841543        0.5042726696        2.3976982497
 C         -1.9658860533        0.5550169799        1.3745107768
 C         -3.0056712687       -1.4792860051        2.3085316369
 C         -4.0304151092       -0.3526234916        0.4010067831
 C         -6.1721558230       -0.1432068206       -1.4709862528
 C         -5.0763788920       -1.3085263663        0.3984315563
 C         -4.0596238846        0.6931666977       -0.5515062365
 C         -5.1301116573        0.7742205419       -1.4699965787
 C         -6.1218667045       -1.1806308944       -0.5385563348
 H         -5.1185627123        1.5875443656       -2.1777359283
 H         -6.9073605275       -1.9207941388       -0.5140852123
 C         -2.0042966528        1.5702668668        0.3889746996
 H         -1.2219106318        2.3113649703        0.3659610542
 C         -3.0115817716        1.6383047674       -0.5389958283
 H         -3.0173771801        2.4329068649       -1.2702018836
 C         -4.0422825878       -2.4376291037        2.2743935854
 H         -4.0351500959       -3.2364291963        3.0007754934
 C         -5.0524291190       -2.3545919184        1.3478769955
 H         -5.8459708178       -3.0867301958        1.3428683937
 C         -7.3474939661       -0.0571098889       -2.4258462106
 C         -8.6341695465        0.0952958590       -1.5991705933
 H         -8.5892008868        0.9922017023       -0.9851195164
 H         -8.8035486976       -0.7582976335       -0.9486258663
 H         -9.4862206809        0.1807968765       -2.2674464262
 C         -7.4117161105       -1.3486162183       -3.2558963914
 H         -8.2345634526       -1.2839751762       -3.9619992441
 H         -7.5735690576       -2.2250415857       -2.6347808728
 H         -6.4898912026       -1.4882134989       -3.8165059836
 C         -7.2399710745        1.1314361821       -3.3823147663
 H         -8.1070588133        1.1432133065       -4.0369128039
 H         -6.3547275891        1.0565837427       -4.0101301849
 H         -7.2244999737        2.0750750450       -2.8413491236
 H         -1.9942915191       -2.3041787231        4.0216034884
