77
       -105.32143676
 H          0.7228238425        4.8641433435        0.4310609770
 C          1.2997480491        3.9614613173        0.2922179007
 C          2.8228045504        1.6495107538       -0.0609010942
 C          1.0272442819        2.8503428782        1.0939082661
 C          2.2904848160        3.9449572175       -0.6632634990
 C          3.0762293011        2.7909262101       -0.8646046977
 C          1.7998226372        1.6683843941        0.9254158741
 H          2.4801428194        4.8227709632       -1.2620764465
 C          3.6162161765        0.4939650409       -0.2371821662
 C          5.2168931953       -1.8399778435       -0.5864980320
 C          3.4047323550       -0.6547830369        0.5610631199
 C          4.6476549787        0.4710645207       -1.2086482728
 C          5.4229267242       -0.6961192842       -1.3597783462
 C          4.2102332417       -1.7991707212        0.3683373045
 H          6.2023575339       -0.6846175325       -2.1065850671
 H          4.0193211380       -2.6540179145        0.9969882750
 C          4.1091204625        2.7502612833       -1.8260354420
 H          4.2934012033        3.6278426849       -2.4273990806
 C          4.8745539175        1.6225376154       -1.9955367622
 H          5.6637423683        1.6080541255       -2.7322286536
 C          1.6178860980        0.5080569807        1.7144520313
 H          0.8566536497        0.5060272884        2.4792476473
 C          2.3886981520       -0.6119829487        1.5400326037
 H          2.2281664825       -1.4790612472        2.1632650401
 C          6.0876178973       -3.0604757655       -0.8163973587
 C          5.7230088600       -4.2230176656        0.1081325435
 H          4.6976589122       -4.5500119046       -0.0512869197
 H          5.8622491842       -3.9567776348        1.1535131161
 H          6.3737258201       -5.0666074138       -0.1047905665
 C          7.5531360700       -2.6746652218       -0.5635374984
 H          8.1858301867       -3.5467788409       -0.7014212199
 H          7.6828564094       -2.3152955032        0.4549448643
 H          7.8949861088       -1.9024476842       -1.2469460681
 C          5.9127072274       -3.5206427722       -2.2722667944
 H          4.8715387607       -3.7644183369       -2.4732057631
 H          6.5113735942       -4.4103392944       -2.4449910479
 H          6.2314985599       -2.7612215382       -2.9807026098
 C          0.0040313766        2.9967782023        2.1832789602
 H         -0.5441021768        3.9311059285        2.0142630533
 H          0.5547852401        3.1299019900        3.1218970271
 H         -0.7065099060        1.9134262419        4.5080981528
 C         -1.2885237066        1.5040348459        3.6953214992
 C         -2.8274236756        0.4550826540        1.6164015289
 C         -2.2819357489        0.5922024381        3.9813380352
 C         -1.0216757931        1.9197397358        2.3910204832
 C         -1.8035449608        1.3955188468        1.3222511143
 C         -3.0737462620        0.0455356865        2.9521073609
 C         -3.6289378154       -0.0683356596        0.5771943489
 C         -5.2494715871       -1.1227863698       -1.5193776094
 C         -4.6617210751       -0.9971657045        0.8609845662
 C         -3.4236022984        0.3355792999       -0.7622070752
 C         -4.2390770982       -0.2008451266       -1.7810373901
 C         -5.4477439033       -1.5042881970       -0.1962743122
 H         -4.0586067196        0.1301150572       -2.7926177725
 H         -6.2239491691       -2.2091123513        0.0554704031
 C         -1.6276795717        1.7868714944       -0.0251777966
 H         -0.8653221486        2.5108732366       -0.2682447573
 C         -2.4064984419        1.2771236056       -1.0318662308
 H         -2.2512149647        1.6010864497       -2.0501852873
 C         -4.1080887762       -0.8792620913        3.2160239478
 H         -4.2876613595       -1.1791021488        4.2376215059
 C         -4.8804704743       -1.3877982235        2.2002667552
 H         -5.6699429515       -2.0910222157        2.4192755817
 C         -6.0825063927       -1.6666717374       -2.6651713351
 C         -6.7950928330       -0.4947412623       -3.3568237929
 H         -7.4150559364       -0.8728240276       -4.1645969893
 H         -6.0910819951        0.2166102200       -3.7799462776
 H         -7.4356983246        0.0315134083       -2.6526827680
 C         -7.1380953676       -2.6703334498       -2.1978271653
 H         -7.8475620096       -2.2100754026       -1.5139647063
 H         -6.6805114424       -3.5350338607       -1.7221672700
 H         -7.6974429685       -3.0271885406       -3.0582641706
 C         -5.1473539173       -2.3717201630       -3.6600311336
 H         -4.4192260564       -1.6879103001       -4.0878658084
 H         -5.7326064734       -2.7892889244       -4.4741620539
 H         -4.6133469702       -3.1842381253       -3.1717995360
 H         -2.4662796644        0.2962047584        5.0029032830
