77
       -105.32141604
 H          0.2750250667        3.6700745355        1.8056052087
 C          1.0186450993        3.0087541395        1.3837544585
 C          3.0260930296        1.3580966972        0.3720242113
 C          0.9964579140        1.6558235054        1.7143696436
 C          1.9858945656        3.5448074679        0.5584773452
 C          3.0188831797        2.7381505721        0.0452172875
 C          2.0017673001        0.7986872307        1.1831810422
 H          1.9739786014        4.5988757585        0.3256972138
 C          4.0864386313        0.5474475816       -0.0917530250
 C          6.2782903414       -1.0664669430       -0.9451514389
 C          4.1361062653       -0.8275303653        0.2341049780
 C          5.1332443350        1.1039582822       -0.8692793037
 C          6.2053531922        0.2816921943       -1.2793080153
 C          5.2303677982       -1.6047218456       -0.2016906359
 H          6.9860947473        0.7392574401       -1.8656194966
 H          5.2406525323       -2.6500742044        0.0678062128
 C          4.0552368399        3.2692479296       -0.7551544602
 H          4.0310971382        4.3192444519       -1.0056588999
 C          5.0855520546        2.4764912732       -1.1976795040
 H          5.8779548025        2.9004811608       -1.7960926338
 C          2.0583241478       -0.5873208520        1.4599830814
 H          1.2744681145       -1.0403394406        2.0447913736
 C          3.0861141186       -1.3729391734        1.0042311342
 H          3.1066396466       -2.4256435984        1.2440450976
 C          7.4430694142       -1.9512571921       -1.3485146559
 C          8.1065957407       -2.4915646121       -0.0720369991
 H          8.9586363166       -3.1098808866       -0.3394941745
 H          7.4230593794       -3.0987608893        0.5152714514
 H          8.4609220219       -1.6723878818        0.5499292013
 C          8.4975640446       -1.1985961958       -2.1618014920
 H          8.9274695214       -0.3786007296       -1.5908387602
 H          8.0837144398       -0.8177607574       -3.0928526484
 H          9.3056366362       -1.8790001543       -2.4161555326
 C          6.9140396356       -3.1178665760       -2.1966936624
 H          7.7450657152       -3.7419486190       -2.5124224161
 H          6.4097872288       -2.7453179898       -3.0857137535
 H          6.2193076074       -3.7422525607       -1.6417345992
 C          0.0034521860        1.1781503618        2.7410431017
 H         -0.5729017868        2.0445070255        3.0810912804
 H          0.5795679146        0.8200130017        3.6002304465
 H         -0.2675798163       -1.2246515341        3.8838689502
 C         -1.0112032237       -1.0707660167        3.1146948657
 C         -3.0156328777       -0.6524221029        1.2212764368
 C         -1.9761554215       -2.0360584475        2.9272462803
 C         -0.9892387245        0.1085700141        2.3691613546
 C         -1.9917642809        0.3200497255        1.3836125970
 C         -3.0095213147       -1.8457966574        1.9878590549
 C         -4.0747377924       -0.4234256734        0.3146094323
 C         -6.2610345747        0.0887199059       -1.4441600953
 C         -5.1199542032       -1.3699827188        0.1755866423
 C         -4.1252892258        0.7658508806       -0.4501581525
 C         -5.2177705735        0.9958204692       -1.3160658718
 C         -6.1874665135       -1.0910295359       -0.7019331561
 H         -5.2225504631        1.9157853652       -1.8783660152
 H         -6.9716471623       -1.8284158707       -0.7842225524
 C         -2.0493607985        1.4820617119        0.5774056933
 H         -1.2662880583        2.2181550377        0.6584192827
 C         -3.0759641885        1.6984855600       -0.3056288987
 H         -3.0963780555        2.6019747359       -0.8967228154
 C         -4.0442470738       -2.7911084787        1.8145946464
 H         -4.0202887501       -3.6999044032        2.3970704863
 C         -5.0737684386       -2.5600398015        0.9357733405
 H         -5.8659894370       -3.2851998663        0.8249129223
 C         -7.4614081508        0.3312703404       -2.3391006339
 C         -7.3807423252        1.6674215789       -3.0788529583
 H         -6.5138253979        1.7061773996       -3.7348302410
 H         -7.3495753102        2.5035770332       -2.3836879505
 H         -8.2661204174        1.7879569438       -3.6969664235
 C         -8.7258268161        0.3320050671       -1.4653403810
 H         -9.5952970624        0.5278891757       -2.0862708125
 H         -8.6648727245        1.1091964336       -0.7065242788
 H         -8.8779506842       -0.6221557258       -0.9683923342
 C         -7.5465123600       -0.7984426678       -3.3771722650
 H         -6.6404800790       -0.8333400405       -3.9783251082
 H         -8.3889251647       -0.6186146748       -4.0388730902
 H         -7.6892350722       -1.7697103819       -2.9119983604
 H         -1.9653782377       -2.9355760506        3.5239471559
