77
       -105.32136191
 H          0.7044462703        4.8275099198        0.3393682226
 C          1.2877846928        3.9187431319        0.3691893789
 C          2.8330411309        1.5959513760        0.4475904526
 C          1.0722146042        2.9401129601       -0.6007976725
 C          2.2335497745        3.7674740554        1.3606231839
 C          3.0284671770        2.6060356746        1.4242947730
 C          1.8555967795        1.7511225729       -0.5722075364
 H          2.3790764330        4.5474810274        2.0924812230
 C          3.6398892917        0.4366664154        0.4856994357
 C          5.2765858286       -1.8979624572        0.5567660732
 C          3.4851633683       -0.5793186396       -0.4854595765
 C          4.6285903553        0.2786797840        1.4894112231
 C          5.4237706046       -0.8877027727        1.5017999049
 C          4.3072477894       -1.7246295009       -0.4279919953
 H          6.1657344460       -0.9749261582        2.2793182336
 H          4.1656929038       -2.4806028006       -1.1855330349
 C          4.0177229636        2.4310187029        2.4170837095
 H          4.1580354495        3.2090925424        3.1524278154
 C          4.7962929799        1.2998216415        2.4502563768
 H          5.5517583360        1.1835978143        3.2128287672
 C          1.7274916515        0.7206901069       -1.5321858468
 H          0.9985790964        0.8234701670       -2.3210623134
 C          2.5111386931       -0.4037138084       -1.4924619229
 H          2.3934071624       -1.1695616156       -2.2445623383
 C          6.1218785742       -3.1581369308        0.5624034077
 C          5.1913492491       -4.3728293692        0.7035849607
 H          4.4988470764       -4.4532489517       -0.1299403894
 H          4.6168974327       -4.3084870255        1.6252970786
 H          5.7845059529       -5.2821740746        0.7345037949
 C          7.1294719544       -3.1831784308        1.7131255593
 H          6.6298580916       -3.1536809051        2.6789564782
 H          7.8341672550       -2.3578943429        1.6410435812
 H          7.7008279592       -4.1062437463        1.6676462911
 C          6.8928854282       -3.2405498471       -0.7636585542
 H          6.2255518804       -3.3047235557       -1.6187804375
 H          7.5221240668       -4.1259085229       -0.7631299105
 H          7.5309214388       -2.3685616672       -0.8889683988
 C          0.1040211030        3.2385756689       -1.7096430529
 H          0.7004702084        3.4974347062       -2.5922837983
 H         -0.4551968084        4.1423094606       -1.4406640258
 H         -0.4694717681        2.4720145176       -4.1930594832
 C         -1.0983264987        1.9652496662       -3.4755915603
 C         -2.7599177251        0.6709220494       -1.6444174830
 C         -2.0761695840        1.1093017737       -3.9354575105
 C         -0.9068112154        2.2042064485       -2.1149751749
 C         -1.7494833092        1.5508524190       -1.1709184583
 C         -2.9298297385        0.4430049867       -3.0342390312
 C         -3.6247974066        0.0276348141       -0.7308771022
 C         -5.3783326923       -1.2624226332        1.1117199481
 C         -4.6461492547       -0.8400924880       -1.1932804613
 C         -3.4960173603        0.2497776783        0.6595851475
 C         -4.3760254748       -0.4007449021        1.5502491492
 C         -5.4991103906       -1.4666895821       -0.2590667455
 H         -4.2529803606       -0.2078882900        2.6052706111
 H         -6.2646115014       -2.1203121608       -0.6456380676
 C         -1.6482143357        1.7568844796        0.2244497164
 H         -0.8945590566        2.4291757081        0.6042359682
 C         -2.4882749867        1.1307823299        1.1089122156
 H         -2.3895402711        1.3146812096        2.1683795433
 C         -3.9522743081       -0.4253015377       -3.4764313419
 H         -4.0724824810       -0.5873762949       -4.5371383599
 C         -4.7873446983       -1.0501761297       -2.5825208107
 H         -5.5673887950       -1.7071137802       -2.9370862542
 C         -6.2860456326       -1.9334897903        2.1257634140
 C         -7.0258173491       -0.8467014156        2.9203125911
 H         -7.6156258775       -0.2214390150        2.2537300205
 H         -6.3407238748       -0.2099274891        3.4733595102
 H         -7.6986949139       -1.3134784145        3.6338632371
 C         -5.4221262594       -2.7791764632        3.0742991936
 H         -4.8689479515       -3.5324094427        2.5172323078
 H         -6.0611495792       -3.2864788693        3.7912311747
 H         -4.7134701505       -2.1707298278        3.6296271137
 C         -7.3229118338       -2.8474094425        1.4702751732
 H         -7.9830651782       -2.2888783479        0.8106342527
 H         -7.9386836172       -3.3005442136        2.2423281561
 H         -6.8474471453       -3.6528593503        0.9148451144
 H         -2.2014520586        0.9515330158       -4.9959379424
