77
       -105.32133102
 H          0.7006876077        4.8400013234        0.3355386725
 C          1.2828976377        3.9306337687        0.3686944576
 C          2.8246325971        1.6057998279        0.4562759370
 C          1.0700550678        2.9511473753       -0.6010367655
 C          2.2242897365        3.7792236702        1.3642598189
 C          3.0169900383        2.6165512792        1.4329096466
 C          1.8523442286        1.7615237482       -0.5683518742
 H          2.3677629280        4.5598505773        2.0958622645
 C          3.6292566195        0.4451553909        0.4995401916
 C          5.2602713169       -1.8930725195        0.5821237124
 C          3.4776863894       -0.5714550840       -0.4714550164
 C          4.6124011216        0.2862652144        1.5085599583
 C          5.4048465340       -0.8819141027        1.5265935340
 C          4.2968946782       -1.7185281990       -0.4082600355
 H          6.1425275571       -0.9698287897        2.3081001859
 H          4.1578609620       -2.4749647856       -1.1658081609
 C          4.0011065483        2.4408716117        2.4306760063
 H          4.1393188538        3.2195578794        3.1657695642
 C          4.7772773524        1.3081803819        2.4690542449
 H          5.5286350230        1.1913434959        3.2355830242
 C          1.7279654519        0.7308660445       -1.5285710415
 H          1.0037820463        0.8345094720       -2.3216891733
 C          2.5095980426       -0.3947615147       -1.4839647755
 H          2.3948016903       -1.1607844889       -2.2363422335
 C          6.1018652234       -3.1556205229        0.5944456353
 C          7.1038754173       -3.1811841621        1.7499934581
 H          6.5997609718       -3.1484419510        2.7133869385
 H          7.8111527477       -2.3579502934        1.6796527658
 H          7.6729373852       -4.1058781263        1.7090731533
 C          6.8789243707       -3.2436297056       -0.7276862834
 H          7.5200899567       -2.3738169774       -0.8521641294
 H          6.2155463940       -3.3080688963       -1.5858640393
 H          7.5055720204       -4.1308007198       -0.7218996745
 C          5.1668073683       -4.3670540529        0.7340112687
 H          4.5883994277       -4.2988898796        1.6529793911
 H          5.7568677294       -5.2782373871        0.7695134296
 H          4.4777913528       -4.4469168249       -0.1024687594
 C          0.1053691649        3.2488690899       -1.7130852364
 H          0.7044038295        3.5087962178       -2.5936731830
 H         -0.4558183776        4.1519040271       -1.4457939063
 H         -0.4637293343        2.4875601273       -4.1988856057
 C         -1.0919156617        1.9771202278       -3.4834505581
 C         -2.7511264860        0.6724977778       -1.6574131214
 C         -2.0663923550        1.1191199657       -3.9465802041
 C         -0.9027728497        2.2133267488       -2.1220073089
 C         -1.7448244994        1.5553601402       -1.1805902443
 C         -2.9185260228        0.4473169217       -3.0479862382
 C         -3.6142694156        0.0232445489       -0.7464400087
 C         -5.3628586614       -1.2806024871        1.0911335962
 C         -4.6311923775       -0.8479248792       -1.2121090449
 C         -3.4879855927        0.2424629182        0.6447129339
 C         -4.3654100335       -0.4149336850        1.5328530616
 C         -5.4818174442       -1.4812956288       -0.2803473615
 H         -4.2442110602       -0.2243415348        2.5884963195
 H         -6.2439433556       -2.1374026882       -0.6693641799
 C         -1.6467928234        1.7592627247        0.2153282294
 H         -0.8971513652        2.4346274197        0.5975928753
 C         -2.4851674675        1.1274320638        1.0972852547
 H         -2.3889036419        1.3097112572        2.1572592176
 C         -3.9370039757       -0.4239566715       -3.4934899795
 H         -4.0555657386       -0.5836328933       -4.5547450373
 C         -4.7702259971       -1.0548083057       -2.6020631973
 H         -5.5470870181       -1.7141607211       -2.9591277547
 C         -6.2670088086       -1.9602160045        2.1027169856
 C         -7.3003991873       -2.8755316623        1.4436632881
 H         -6.8219404605       -3.6767090892        0.8846545774
 H         -7.9630087627       -2.3168420969        0.7866336422
 H         -7.9140363034       -3.3344190217        2.2140122497
 C         -7.0109101623       -0.8807926880        2.9033710365
 H         -7.6037389268       -0.2545195706        2.2404401632
 H         -6.3283439243       -0.2440849443        3.4595829679
 H         -7.6814456498       -1.3542241174        3.6147424705
 C         -5.3982107628       -2.8066509571        3.0461631446
 H         -4.8427045686       -3.5550192399        2.4848734121
 H         -6.0340656460       -3.3198810070        3.7616910703
 H         -4.6912718901       -2.1977226847        3.6031611087
 H         -2.1899361708        0.9635844868       -5.0075942569
