77
       -105.32624071
 H          0.6502633348        3.8246066089        0.0831138179
 C          1.4765849675        3.1292662837        0.0861959985
 C          3.6297075603        1.3524472224        0.1068063313
 C          1.2627910748        1.8261855429        0.5234506739
 C          2.7197727240        3.5644801262       -0.3266926668
 C          3.8266931806        2.6943968958       -0.3087477824
 C          2.3447505136        0.9003572161        0.5101922393
 H          2.8556588663        4.5845893896       -0.6524389311
 C          4.7303589256        0.4668665096        0.1204398038
 C          6.9562471199       -1.3150777379        0.1678576585
 C          4.5632152214       -0.8797116198        0.5180294156
 C          6.0208876347        0.9139605551       -0.2593952210
 C          7.1058313206        0.0106847784       -0.2245207243
 C          5.6808902273       -1.7411472768        0.5327809188
 H          8.0738375055        0.3856276308       -0.5160159601
 H          5.5210429821       -2.7627700054        0.8429810843
 C          5.1190963133        3.1200528412       -0.6904429949
 H          5.2561612078        4.1442719777       -1.0035460907
 C          6.1872364749        2.2569490521       -0.6624178014
 H          7.1695044929        2.6000625258       -0.9508853198
 C          2.2028542842       -0.4582583109        0.8814386358
 H          1.2315931867       -0.8366233288        1.1600313828
 C          3.2720014480       -1.3176982275        0.8848651242
 H          3.1331019192       -2.3483481238        1.1756551507
 C          8.1139614982       -2.2947936691        0.2112279817
 C          7.8016404129       -3.4688267883       -0.7295736218
 H          7.6549679987       -3.1134967876       -1.7472891211
 H          6.9118349767       -4.0112340599       -0.4219267745
 H          8.6348543132       -4.1656173402       -0.7284729705
 C          8.2707506958       -2.8062446915        1.6516340662
 H          9.1132606584       -3.4897912191        1.7040610999
 H          7.3866336055       -3.3377140351        1.9930103048
 H          8.4596338293       -1.9785768739        2.3318250446
 C          9.4354313269       -1.6606263272       -0.2259383810
 H          9.3844577919       -1.3049726927       -1.2526701823
 H         10.2235994788       -2.4069025216       -0.1762912942
 H          9.7184084406       -0.8408018000        0.4304986545
 C         -0.0990664539        1.4621927319        1.0375832517
 H         -0.5715865075        2.3778647776        1.4066354384
 H         -0.0062013586        0.7850088651        1.8922722764
 H          0.4543473230        0.6894304152       -1.5059695338
 C         -0.5780518432        0.5108889342       -1.2454561278
 C         -3.2614223768        0.0592985057       -0.6102724613
 C         -1.4217320043       -0.0345961695       -2.1929265207
 C         -1.0270195912        0.8428087636        0.0269184561
 C         -2.3913139085        0.6079910306        0.3689898230
 C         -2.7787180543       -0.2676656843       -1.9032586300
 C         -4.6237166612       -0.1612482937       -0.3074395719
 C         -7.3802270552       -0.5790879285        0.2941527926
 C         -5.5021476183       -0.6980447220       -1.2821607374
 C         -5.1354637426        0.1553302515        0.9719605552
 C         -6.5027553423       -0.0612258893        1.2449360125
 C         -6.8623484021       -0.8943629132       -0.9571520675
 H         -6.8623392580        0.1919064199        2.2308855123
 H         -7.5021542247       -1.3022741467       -1.7232706781
 C         -2.9286935861        0.9015980093        1.6449372524
 H         -2.2911957066        1.3069061506        2.4147633464
 C         -4.2516207798        0.6839255773        1.9371714038
 H         -4.6311200203        0.9218896628        2.9196808653
 C         -3.6676507542       -0.8099221324       -2.8592322715
 H         -3.2873437356       -1.0574336793       -3.8390131723
 C         -4.9911700956       -1.0181364567       -2.5591420747
 H         -5.6577327320       -1.4295160437       -3.3022799083
 C         -8.8413761463       -0.7733046867        0.6530393381
 C         -8.9340263940       -1.7408928310        1.8431008989
 H         -9.9775673565       -1.9071562953        2.0944732497
 H         -8.4358542836       -1.3492758713        2.7256870586
 H         -8.4862166789       -2.6996925963        1.5909204486
 C         -9.6586561500       -1.3479329708       -0.5051476944
 H         -9.2946057070       -2.3300285665       -0.7987027146
 H         -9.6484432479       -0.6827001135       -1.3657466827
 H        -10.6926536055       -1.4618608809       -0.1913452036
 C         -9.4358284377        0.5897276444        1.0406195183
 H        -10.4897275417        0.4721079903        1.2757243047
 H         -9.3459979305        1.2934719520        0.2159122147
 H         -8.9443261345        1.0151298372        1.9112932167
 H         -1.0432432103       -0.2802685629       -3.1736761260
