77
       -105.32122411
 H          0.7356883063        4.8852732820       -0.1126723473
 C          1.3108471307        3.9717256693       -0.1525247073
 C          2.8323111894        1.6341831754       -0.2563883834
 C          1.0398828271        2.9570388061        0.7652175105
 C          2.3001354912        3.8492067453       -1.1045821742
 C          3.0832292029        2.6804444421       -1.1809732404
 C          1.8127643666        1.7614226756        0.7253191002
 H          2.4879861488        4.6565545704       -1.7960298648
 C          3.6249498860        0.4656488776       -0.3078833322
 C          5.2274336192       -1.8913880715       -0.4104989680
 C          3.4149506392       -0.5867999260        0.6127433139
 C          4.6534951829        0.3337719310       -1.2746441914
 C          5.4305956845       -0.8444246608       -1.3038200993
 C          4.2213383774       -1.7423869297        0.5407696198
 H          6.2037238144       -0.9112534428       -2.0524552232
 H          4.0371965009       -2.5265161461        1.2595389212
 C          4.1132999863        2.5321781320       -2.1358292469
 H          4.2964703263        3.3380714040       -2.8306659599
 C          4.8771685925        1.3914654773       -2.1831231468
 H          5.6636035499        1.2954484380       -2.9166435876
 C          1.6323869988        0.6963430951        1.6378740652
 H          0.8735198434        0.7789439559        2.4004945589
 C          2.4026073872       -0.4367540940        1.5855074670
 H          2.2440353405       -1.2297886764        2.3010418873
 C          6.0503934398       -3.1660016860       -0.4371978622
 C          5.1050645016       -4.3550579416       -0.6692901822
 H          4.5703124657       -4.2396215018       -1.6097314542
 H          4.3774833443       -4.4579267449        0.1312484159
 H          5.6827357717       -5.2736325820       -0.7162900055
 C          6.7646511875       -3.3208911642        0.9138586868
 H          7.3777485112       -4.2173875782        0.8994934452
 H          6.0617330666       -3.4093066611        1.7377295700
 H          7.4122093683       -2.4676957144        1.1032064829
 C          7.1037037437       -3.1606826249       -1.5464853884
 H          6.6446564120       -3.0794155139       -2.5293389958
 H          7.6561837345       -4.0958700223       -1.5190091333
 H          7.8194323188       -2.3532948676       -1.4097056766
 C          0.0199597238        3.2208456841        1.8355461292
 H         -0.5264129167        4.1333168472        1.5693206647
 H          0.5734096215        3.4517304449        2.7533626947
 H         -0.6904451513        2.3995483363        4.2643248088
 C         -1.2743354835        1.9050776867        3.5017443415
 C         -2.8181603568        0.6386921953        1.5517238562
 C         -2.2697295546        1.0327326702        3.8868696452
 C         -1.0080495994        2.1750664337        2.1595626183
 C         -1.7923086905        1.5386688705        1.1553830641
 C         -3.0641257544        0.3787032739        2.9244521195
 C         -3.6219856131        0.0062979587        0.5768681842
 C         -5.2470337475       -1.2681455166       -1.3901199501
 C         -4.6567886094       -0.8831112482        0.9616530025
 C         -3.4170293248        0.2601351868       -0.7989413949
 C         -4.2346114270       -0.3831135398       -1.7521519010
 C         -5.4450412259       -1.5013700753       -0.0329796018
 H         -4.0540907862       -0.1659453022       -2.7940977656
 H         -6.2226754559       -2.1723628625        0.2952001378
 C         -1.6171183962        1.7793809663       -0.2270271559
 H         -0.8534899306        2.4705331557       -0.5487048341
 C         -2.3982126139        1.1641025595       -1.1710676761
 H         -2.2433333910        1.3741326082       -2.2188919059
 C         -4.1005501005       -0.5087984540        3.2890759567
 H         -4.2798026671       -0.6942299878        4.3375510905
 C         -4.8753112125       -1.1236814568        2.3358625224
 H         -5.6664483007       -1.7964062344        2.6313237782
 C         -6.0821144394       -1.9328919320       -2.4686999961
 C         -5.1492806986       -2.7469311582       -3.3789548126
 H         -5.7358944458       -3.2500691845       -4.1421219933
 H         -4.6180794079       -3.5022098656       -2.8035456132
 H         -4.4187697666       -2.1171363301       -3.8794845757
 C         -6.7910191249       -0.8426691588       -3.2862652994
 H         -7.4295875938       -0.2392508258       -2.6449785984
 H         -7.4125669808       -1.3060832690       -4.0470034548
 H         -6.0848486205       -0.1851264834       -3.7859072637
 C         -7.1408817046       -2.8751077947       -1.8931409588
 H         -6.6860522667       -3.6835937506       -1.3249722757
 H         -7.7019458111       -3.3228599011       -2.7087921633
 H         -7.8483471776       -2.3396316625       -1.2641629778
 H         -2.4536620768        0.8510051854        4.9348871610
