77
       -105.32120207
 H          0.8208085903        4.9987984116        0.1634625593
 C          1.3623881978        4.0659365465        0.2206377371
 C          2.7875376686        1.6707401931        0.3717869333
 C          1.0871022388        3.0619238422       -0.7109642430
 C          2.3099286953        3.9050988631        1.2059668846
 C          3.0423240265        2.7039398662        1.3102643403
 C          1.8169737391        1.8426075479       -0.6518745761
 H          2.5033705549        4.7028775396        1.9068327177
 C          3.5256667041        0.4689906106        0.4540035122
 C          5.0007457521       -1.9651774255        0.6253129511
 C          3.3123701285       -0.5735419073       -0.4782049690
 C          4.5009080071        0.2917634038        1.4667755179
 C          5.2148590332       -0.9217357133        1.5276992195
 C          4.0552330207       -1.7703307959       -0.3720318214
 H          5.9521759047       -1.0286837447        2.3089018489
 H          3.8648085186       -2.5409107460       -1.1016522841
 C          4.0234465813        2.5126801676        2.3070367971
 H          4.2119228416        3.3104451871        3.0097375525
 C          4.7330251803        1.3393370688        2.3862140316
 H          5.4812177084        1.2084385908        3.1535593437
 C          1.6401331844        0.7907227471       -1.5814255580
 H          0.9275067713        0.9108166805       -2.3829159525
 C          2.3576742324       -0.3742300321       -1.4987181146
 H          2.2017847890       -1.1561186378       -2.2269758302
 C          5.7968134551       -3.2483003078        0.7685291047
 C          5.5130585970       -3.8476878983        2.1549817789
 H          4.4511858895       -4.0544242051        2.2715900639
 H          5.8248312270       -3.1845420135        2.9570293909
 H          6.0568885946       -4.7815980595        2.2638203432
 C          7.2917549694       -2.9192173334        0.6380899602
 H          7.6298634990       -2.2433612790        1.4185189604
 H          7.4991007594       -2.4622936333       -0.3270300689
 H          7.8716563509       -3.8345149907        0.7145007412
 C          5.4313462228       -4.2862629790       -0.2937184905
 H          4.3832774668       -4.5704879527       -0.2264329528
 H          6.0254512018       -5.1823080239       -0.1370614183
 H          5.6462447013       -3.9209763790       -1.2954222586
 C          0.1031647028        3.3620202494       -1.8044085285
 H          0.6856563073        3.6123105918       -2.6991210065
 H         -0.4439096515        4.2726428245       -1.5325335429
 H         -0.5840113929        2.6584562414       -4.2742514316
 C         -1.1709837475        2.1224022298       -3.5428705631
 C         -2.7127565364        0.7441176448       -1.6682465175
 C         -2.1491390735        1.2573144602       -3.9780827559
 C         -0.9211706314        2.3324639087       -2.1844955783
 C         -1.7101309947        1.6461108338       -1.2204406505
 C         -2.9405463480        0.5430514594       -3.0541931451
 C         -3.5096161499        0.0484838918       -0.7318224174
 C         -5.1040902977       -1.3651496232        1.1627913409
 C         -4.5165710112       -0.8475528901       -1.1692768280
 C         -3.3240771490        0.2414381548        0.6573251533
 C         -4.1263353172       -0.4708796745        1.5762487048
 C         -5.2892370897       -1.5331655588       -0.2106709438
 H         -3.9557374660       -0.2957366627        2.6263072515
 H         -6.0492685308       -2.2090260493       -0.5724942576
 C         -1.5612209314        1.8331605904        0.1740609930
 H         -0.8239589294        2.5335193692        0.5354503311
 C         -2.3360457180        1.1566980184        1.0800901944
 H         -2.2002012656        1.3257794082        2.1379034115
 C         -3.9536817458       -0.3470825770       -3.4712699352
 H         -4.1207486231       -0.4845056296       -4.5290712572
 C         -4.7203740596       -1.0261363295       -2.5560827406
 H         -5.4923899859       -1.7027792879       -2.8905836585
 C         -5.9641535938       -2.1538201605        2.1317771092
 C         -5.7389263283       -3.6525508559        1.8764480419
 H         -4.6911138158       -3.9104529008        2.0160503755
 H         -6.0342444003       -3.9434466761        0.8722393037
 H         -6.3300835332       -4.2323910717        2.5793716712
 C         -7.4384603841       -1.7983111590        1.8865739057
 H         -7.7606791987       -2.0645705837        0.8838618480
 H         -7.6029367485       -0.7326317559        2.0297537591
 H         -8.0630037478       -2.3383207187        2.5924283653
 C         -5.6266404848       -1.8535373918        3.5930125805
 H         -4.5955734588       -2.1134037803        3.8234762359
 H         -6.2673734685       -2.4490349897        4.2374063511
 H         -5.8010840905       -0.8071355438        3.8331193230
 H         -2.3213204720        1.1218833245       -5.0350095793
