77
       -105.32118000
 H          0.8051058531        4.9372642039        0.3386474656
 C          1.3541551950        4.0072809338        0.3619760610
 C          2.8014463381        1.6215891849        0.4241862985
 C          1.0889649870        3.0368295485       -0.6073643324
 C          2.3019325519        3.8179242140        1.3420176713
 C          3.0466388079        2.6213012843        1.4006793245
 C          1.8275088057        1.8215261346       -0.5912219590
 H          2.4873278761        4.5904362895        2.0727349671
 C          3.5532323053        0.4260113599        0.4596754601
 C          5.0619054919       -1.9926273874        0.5314388940
 C          3.3498211402       -0.5828994815       -0.5109906984
 C          4.5333619439        0.2221874856        1.4626577755
 C          5.2637602190       -0.9830205736        1.4742170723
 C          4.1092814552       -1.7726321325       -0.4538454653
 H          6.0042595025       -1.1107443171        2.2492695733
 H          3.9261988196       -2.5170591673       -1.2119436961
 C          4.0309653520        2.4030478361        2.3887293786
 H          4.2110348640        3.1752356142        3.1215632111
 C          4.7545644230        1.2360911706        2.4216488287
 H          5.5058485601        1.0847535441        3.1821830403
 C          1.6574285000        0.8015560919       -1.5569680791
 H          0.9389276009        0.9420582906       -2.3497377496
 C          2.3882848465       -0.3574914078       -1.5195414939
 H          2.2378257620       -1.1141108268       -2.2751201157
 C          5.8781828964       -3.2679360712        0.6202421446
 C          7.3674617799       -2.9101445031        0.5006171437
 H          7.6970778014       -2.2620790077        1.3078029560
 H          7.5650666632       -2.4102700011       -0.4450709472
 H          7.9618613346       -3.8185524182        0.5377248333
 C          5.5264934156       -4.2668094612       -0.4833014325
 H          5.7318862708       -3.8565040768       -1.4694688006
 H          4.4835797910       -4.5712268807       -0.4251403112
 H          6.1360049905       -5.1584799609       -0.3657343213
 C          5.6075264200       -3.9283440695        1.9813537924
 H          5.9105881100       -3.2937683279        2.8094370188
 H          6.1665640799       -4.8570345668        2.0506130239
 H          4.5494125749       -4.1568107624        2.0912676197
 C          0.1087750150        3.3721610779       -1.6941759373
 H          0.6948714085        3.6497103114       -2.5783473604
 H         -0.4384418450        4.2740458219       -1.3951820858
 H         -0.5511240404        2.7231282815       -4.1880262555
 C         -1.1509124382        2.1777272681       -3.4741247813
 C         -2.7309330976        0.7763319302       -1.6491343774
 C         -2.1336801372        1.3306807091       -3.9395152047
 C         -0.9155060363        2.3564811322       -2.1110152450
 C         -1.7224014566        1.6551559637       -1.1698349714
 C         -2.9438475870        0.6077104465       -3.0415537291
 C         -3.5495014175        0.0725180132       -0.7375788408
 C         -5.1965432627       -1.3548264050        1.1017597847
 C         -4.5648430085       -0.7996672837       -1.2047780253
 C         -3.3778138569        0.2349777975        0.6564797419
 C         -4.2059405225       -0.4824057201        1.5454159398
 C         -5.3645433472       -1.4949971043       -0.2721624482
 H         -4.0510941942       -0.3341046444        2.6034419208
 H         -6.1264903698       -2.1506763505       -0.6622485294
 C         -1.5847383055        1.8087170572        0.2291089864
 H         -0.8394550735        2.4877019903        0.6138720773
 C         -2.3803883122        1.1247567870        1.1116151056
 H         -2.2536832318        1.2680822007        2.1743655866
 C         -3.9637412622       -0.2610184824       -3.4885049192
 H         -4.1191515644       -0.3753249437       -4.5508567807
 C         -4.7516877140       -0.9472347128       -2.5967038138
 H         -5.5287667790       -1.6058064886       -2.9547355552
 C         -6.0409432209       -2.1064642049        2.1140227502
 C         -6.7834577110       -1.0880736913        2.9920381662
 H         -7.4195542710       -0.4504737650        2.3821740044
 H         -6.0980962469       -0.4570131924        3.5512363761
 H         -7.4117095019       -1.6138146829        3.7052637721
 C         -5.1115599940       -2.9681529532        2.9830644970
 H         -4.4009056639       -2.3639556801        3.5405349118
 H         -4.5574351074       -3.6729097887        2.3666093050
 H         -5.7035999203       -3.5326189938        3.6975944948
 C         -7.0723704337       -3.0221986853        1.4525228976
 H         -7.7772915917       -2.4547957715        0.8492496002
 H         -7.6405110189       -3.5357486628        2.2232630231
 H         -6.5931006328       -3.7808300244        0.8375955573
 H         -2.2935804061        1.2197757127       -5.0012652038
