77
       -105.32116514
 H          0.8027554572        4.9576905487        0.2772035480
 C          1.3540236526        4.0294026002        0.3124163975
 C          2.8093230124        1.6495648062        0.4095308628
 C          1.0893401759        3.0449434287       -0.6395436388
 C          2.3059057141        3.8571781934        1.2943391065
 C          3.0529086327        2.6648516033        1.3699808271
 C          1.8331517604        1.8306642222       -0.6070784005
 H          2.4900984040        4.6418582225        2.0123421719
 C          3.5651339262        0.4569496364        0.4620445112
 C          5.0848235957       -1.9536952592        0.5740282361
 C          3.3622754799       -0.5654891176       -0.4933248372
 C          4.5480462341        0.2695748881        1.4663748864
 C          5.2846968691       -0.9341846976        1.4993214604
 C          4.1273450271       -1.7484239380       -0.4160997138
 H          6.0233929338       -1.0435486247        2.2771479993
 H          3.9500475693       -2.5085156387       -1.1618987237
 C          4.0400855153        2.4629653865        2.3596156319
 H          4.2196940515        3.2464080997        3.0805651707
 C          4.7667736391        1.2982503249        2.4087815360
 H          5.5195582612        1.1605019822        3.1704218527
 C          1.6639459089        0.7974286740       -1.5575390970
 H          0.9434405524        0.9240372773       -2.3508650494
 C          2.3986535920       -0.3588836149       -1.5044958896
 H          2.2493101463       -1.1270379884       -2.2485854852
 C          5.8607153827       -3.2573591297        0.6069656304
 C          4.8643055582       -4.4156353887        0.7715427226
 H          4.1686799275       -4.4744952444       -0.0612279369
 H          4.2939740394       -4.3007670661        1.6909359576
 H          5.4061554109       -5.3556105219        0.8218655856
 C          6.8637786785       -3.3136429179        1.7605160172
 H          6.3651956497       -3.2357952924        2.7242127036
 H          7.6133141791       -2.5305103160        1.6727454383
 H          7.3830178515       -4.2677685955        1.7361627594
 C          6.6274567195       -3.4101834573       -0.7151856343
 H          5.9586180925       -3.4566905772       -1.5702575494
 H          7.2077351267       -4.3281307892       -0.6940676250
 H          7.3120193119       -2.5770491031       -0.8578340498
 C          0.1056518790        3.3575732116       -1.7300069600
 H          0.6885417016        3.6177322625       -2.6215306340
 H         -0.4413363524        4.2649295202       -1.4474672716
 H         -0.5696805398        2.6734807472       -4.2082951845
 C         -1.1638800486        2.1356159892       -3.4840795182
 C         -2.7267788805        0.7556633586       -1.6285159592
 C         -2.1465213178        1.2817367086       -3.9312072172
 C         -0.9196029769        2.3334250656       -2.1228528045
 C         -1.7167484981        1.6432281630       -1.1684550193
 C         -2.9498888271        0.5683141740       -3.0171171037
 C         -3.5363714897        0.0617281934       -0.7017692686
 C         -5.1616029139       -1.3431475886        1.1733270597
 C         -4.5523965132       -0.8178207115       -1.1515007328
 C         -3.3555283579        0.2410135536        0.6898544167
 C         -4.1728573862       -0.4668347565        1.5989308428
 C         -5.3402997229       -1.4993659849       -0.2023661320
 H         -4.0052766630       -0.3024793404        2.6512173094
 H         -6.1071839957       -2.1622951741       -0.5735441879
 C         -1.5701145043        1.8140153993        0.2284224261
 H         -0.8243654177        2.5001970056        0.5992227209
 C         -2.3570443774        1.1388959197        1.1250196680
 H         -2.2228807921        1.2959084249        2.1849048651
 C         -3.9705127825       -0.3073301843       -3.4464880749
 H         -4.1330119155       -0.4351478691       -4.5062051378
 C         -4.7505025865       -0.9837790288       -2.5406750560
 H         -5.5288854946       -1.6483568230       -2.8844760418
 C         -6.0406247633       -2.1240685379        2.1314887664
 C         -7.5069473109       -1.7407676065        1.8799713833
 H         -7.8272583065       -1.9932608062        0.8730765726
 H         -7.6536417848       -0.6735228537        2.0307015636
 H         -8.1453646349       -2.2753460811        2.5774972581
 C         -5.7068047687       -1.8400754060        3.5968023214
 H         -5.8647648302       -0.7925772568        3.8434936695
 H         -4.6817303459       -2.1192296801        3.8313736446
 H         -6.3614745439       -2.4290761229        4.2331116073
 C         -5.8404176554       -3.6246972575        1.8668421971
 H         -6.4452389155       -4.1988239824        2.5627991940
 H         -4.7980350555       -3.9019414422        2.0098811533
 H         -6.1357330096       -3.9035833122        0.8592394607
 H         -2.3142114324        1.1560278471       -4.9900595838
