77
       -105.32111156
 H          0.7576262842        4.9156291875        0.2003825200
 C          1.3247446344        4.0008174558        0.1086435400
 C          2.8236677241        1.6584598654       -0.1293131837
 C          1.0356835500        2.9334998601        0.9587194396
 C          2.3212262319        3.9278965350       -0.8409592881
 C          3.0923656514        2.7575333220       -0.9850938109
 C          1.7987091332        1.7355907938        0.8519546271
 H          2.5231089146        4.7749250185       -1.4789088720
 C          3.6034625099        0.4863124715       -0.2492459532
 C          5.1764345258       -1.8801311952       -0.4933824688
 C          3.3757720905       -0.6190485674        0.6025856641
 C          4.6360905145        0.4028139518       -1.2170420390
 C          5.3982990048       -0.7812019327       -1.3171489903
 C          4.1678599227       -1.7781113385        0.4614353331
 H          6.1748918099       -0.8104711458       -2.0646084404
 H          3.9703086715       -2.6034078116        1.1287069264
 C          4.1273924552        2.6575598875       -1.9408468410
 H          4.3246763219        3.5034505271       -2.5822228296
 C          4.8781479849        1.5129199451       -2.0555908127
 H          5.6681100144        1.4537740085       -2.7892240006
 C          1.6025868506        0.6189229209        1.6970851217
 H          0.8415778193        0.6634591931        2.4607641992
 C          2.3605712506       -0.5174055212        1.5786277348
 H          2.1898399310       -1.3509356706        2.2435450646
 C          5.9816025825       -3.1620395296       -0.5984577603
 C          6.6861267195       -3.4145502773        0.7429241558
 H          7.2868218704       -4.3168143827        0.6730460560
 H          5.9775611098       -3.5464391870        1.5560681688
 H          7.3443971758       -2.5847685902        0.9904130777
 C          7.0408937533       -3.1003707496       -1.7003256649
 H          7.7672283757       -2.3139521208       -1.5084477591
 H          6.5884198375       -2.9491925554       -2.6779504620
 H          7.5798968039       -4.0432934485       -1.7308381515
 C          5.0205344918       -4.3195697283       -0.9114222438
 H          4.4930735692       -4.1359342003       -1.8451221635
 H          4.2867954885       -4.4628989455       -0.1227982104
 H          5.5851058987       -5.2416819077       -1.0146453861
 C          0.0049271770        3.1390157277        2.0312886035
 H         -0.5370646515        4.0663401816        1.8112320194
 H          0.5486363027        3.3170191306        2.9666000033
 H         -0.7463640448        2.1982417574        4.4031401745
 C         -1.3156384661        1.7410279305        3.6070226987
 C         -2.8201003498        0.5676627094        1.5699040238
 C         -2.3135683436        0.8470267606        3.9309667676
 C         -1.0277853328        2.0786492874        2.2847136443
 C         -1.7936357491        1.4922057186        1.2367869223
 C         -3.0874961908        0.2377635600        2.9234883698
 C         -3.6026862352       -0.0201961816        0.5508993607
 C         -5.1813396009       -1.2088166121       -1.5055427609
 C         -4.6368000343       -0.9350615376        0.8726989607
 C         -3.3763417476        0.3036433490       -0.8067387065
 C         -4.1712552143       -0.2981528115       -1.8050924645
 C         -5.4018123228       -1.5097231367       -0.1652797894
 H         -3.9746888693       -0.0278747606       -2.8315938993
 H         -6.1794660612       -2.2019273989        0.1153587502
 C         -1.5988655736        1.8053410489       -0.1283736083
 H         -0.8367072429        2.5185946162       -0.4017032830
 C         -2.3595808210        1.2334727754       -1.1153388383
 H         -2.1898210809        1.4982546804       -2.1483484096
 C         -4.1240188825       -0.6728693085        3.2253268327
 H         -4.3202702794       -0.9110547397        4.2600091079
 C         -4.8774823535       -1.2448089676        2.2292441953
 H         -5.6685502914       -1.9366146468        2.4769783115
 C         -5.9895795067       -1.8279651783       -2.6307131595
 C         -5.0315912557       -2.5895008196       -3.5601168242
 H         -4.5048552364       -3.3672072012       -3.0110664996
 H         -4.2972186881       -1.9302540201       -4.0150171380
 H         -5.5984297706       -3.0601190436       -4.3581760405
 C         -6.6930129772       -0.7061496578       -3.4092569827
 H         -5.9837304699       -0.0197912596       -3.8636745648
 H         -7.3490619063       -0.1392035366       -2.7525355887
 H         -7.2958674326       -1.1381223308       -4.2028332945
 C         -7.0500931117       -2.8057479258       -2.1215437583
 H         -6.5984797759       -3.6366353356       -1.5839459268
 H         -7.5912748560       -3.2186497259       -2.9684171323
 H         -7.7744034536       -2.3071263762       -1.4815549851
 H         -2.5144313066        0.6124738295        4.9652942587
