77
       -105.32102146
 H          0.7967991969        4.9329411275       -0.2707308976
 C          1.3528900984        4.0069160704       -0.2819367300
 C          2.8219965766        1.6339953543       -0.3153223969
 C          1.0606751401        3.0268871492        0.6665210889
 C          2.3384640292        3.8337924748       -1.2299160855
 C          3.0938608317        2.6451834307       -1.2724768840
 C          1.8098198140        1.8154792059        0.6654556510
 H          2.5432874764        4.6152985049       -1.9457934927
 C          3.5856168291        0.4453348833       -0.3343757894
 C          5.1231715492       -1.9562989757       -0.3773053174
 C          3.3546245848       -0.5730207728        0.6189619552
 C          4.6048195422        0.2581692834       -1.3019142196
 C          5.3495894008       -0.9410754476       -1.3011625149
 C          4.1291310696       -1.7515887236        0.5762561204
 H          6.1161827682       -1.0503490669       -2.0515236274
 H          3.9295187561       -2.5086426900        1.3195017052
 C          4.1162797484        2.4432497488       -2.2256867620
 H          4.3166636666        3.2234985887       -2.9446238800
 C          4.8509523640        1.2826433440       -2.2421102673
 H          5.6311341798        1.1450298138       -2.9756851051
 C          1.6117055552        0.7857716097        1.6141925782
 H          0.8620542551        0.9120887535        2.3799791654
 C          2.3540337931       -0.3667396849        1.5935868499
 H          2.1820029898       -1.1319954245        2.3357602727
 C          5.9083654083       -3.2547689933       -0.3739579418
 C          6.9528868796       -3.3111480351       -1.4900962085
 H          7.4774252640       -4.2614058337       -1.4408217433
 H          7.6933807863       -2.5221961319       -1.3803430261
 H          6.4889900087       -3.2428260010       -2.4716698959
 C          4.9263944055       -4.4209445389       -0.5670094194
 H          4.2017159351       -4.4797424513        0.2406056983
 H          5.4760799059       -5.3573770282       -0.5920223625
 H          4.3886846257       -4.3155544357       -1.5069615867
 C          6.6277848890       -3.3940915469        0.9759963593
 H          5.9287766454       -3.4397077453        1.8066427699
 H          7.3013074996       -2.5554776879        1.1378405754
 H          7.2143949343       -4.3082313160        0.9818548643
 C          0.0412569965        3.3432292593        1.7227411296
 H         -0.4976858962        4.2479845838        1.4175154728
 H          0.5946258484        3.6091504664        2.6311874315
 H         -0.7029646529        2.6569110012        4.1818298911
 C         -1.2771183782        2.1213981570        3.4399008256
 C         -2.7925431845        0.7462146445        1.5418730009
 C         -2.2752678219        1.2681758420        3.8590664269
 C         -0.9946573760        2.3195080510        2.0884618377
 C         -1.7673082963        1.6304779622        1.1102108556
 C         -3.0541035283        0.5586625486        2.9235265831
 C         -3.5793932465        0.0560036728        0.5927320035
 C         -5.1639349272       -1.3422403467       -1.3224427555
 C         -4.6116026838       -0.8206733092        1.0121571121
 C         -3.3589020357        0.2371243660       -0.7921289396
 C         -4.1567029852       -0.4662478674       -1.7192142042
 C         -5.3796067144       -1.5012744682        0.0427130710
 H         -3.9645999760       -0.3039841790       -2.7690512451
 H         -6.1555746330       -2.1608407835        0.3969666369
 C         -1.5799263927        1.8018802017       -0.2808887126
 H         -0.8203596634        2.4841656662       -0.6300412090
 C         -2.3448270983        1.1309927049       -1.1999080088
 H         -2.1804245811        1.2881057417       -2.2555214742
 C         -4.0896768478       -0.3148486775        3.3226421730
 H         -4.2819146897       -0.4437782961        4.3772665116
 C         -4.8469893722       -0.9872331238        2.3945288822
 H         -5.6369424821       -1.6492898391        2.7161001673
 C         -5.9743234701       -2.0774341663       -2.3737826244
 C         -7.0304076984       -2.9991591082       -1.7613467120
 H         -6.5746966943       -3.7678067732       -1.1409711205
 H         -7.5728665233       -3.5001226547       -2.5584244754
 H         -7.7543081257       -2.4380581469       -1.1748698524
 C         -5.0173186584       -2.9297520883       -3.2218341050
 H         -5.5854986574       -3.4826690674       -3.9642208474
 H         -4.4866091283       -3.6444646368       -2.5963073336
 H         -4.2862883036       -2.3199765301       -3.7458790557
 C         -6.6833402732       -1.0448850988       -3.2628830036
 H         -7.3388030662       -0.4139385952       -2.6667480229
 H         -7.2875748568       -1.5589258394       -4.0048118697
 H         -5.9774035609       -0.4081171785       -3.7890474466
 H         -2.4719076500        1.1425709693        4.9129837872
