77
       -105.32090892
 H          0.8519175242        4.9971176429        0.3083682693
 C          1.3843926230        4.0576684182        0.3349699692
 C          2.7852532165        1.6446616075        0.4082332761
 C          1.0968856264        3.0860137135       -0.6268312511
 C          2.3323259930        3.8567648900        1.3125005396
 C          3.0519465711        2.6451845138        1.3782787817
 C          1.8155167058        1.8587248626       -0.6082700112
 H          2.5353527415        4.6303838519        2.0373303018
 C          3.5102959801        0.4329678629        0.4522297751
 C          4.9570869364       -2.0222862642        0.5475367059
 C          3.2854441470       -0.5773913705       -0.5121454089
 C          4.4835251416        0.2132314174        1.4585801263
 C          5.1830350684       -1.0099715896        1.4819267528
 C          4.0146103704       -1.7853049248       -0.4435339957
 H          5.9185323501       -1.1498895456        2.2596279928
 H          3.8158335408       -2.5303335513       -1.1970706041
 C          4.0316420131        2.4123069218        2.3675546694
 H          4.2295545247        3.1858260108        3.0943564740
 C          4.7279250585        1.2291144487        2.4098284246
 H          5.4749528859        1.0660849359        3.1721367177
 C          1.6279954831        0.8390635394       -1.5710654360
 H          0.9171953395        0.9923331918       -2.3684371851
 C          2.3334299626       -0.3353236175       -1.5258632914
 H          2.1696599054       -1.0917023600       -2.2789096260
 C          5.7368876370       -3.3190786684        0.6517714204
 C          7.2364488652       -3.0051937755        0.5385527268
 H          7.5799629386       -2.3608163957        1.3428637004
 H          7.4539460696       -2.5185357356       -0.4096423308
 H          7.8041628972       -3.9300367151        0.5860854892
 C          5.3633846503       -4.3171828436       -0.4453009743
 H          5.5859873054       -3.9214466199       -1.4336707097
 H          4.3119420190       -4.5915064147       -0.3908237937
 H          5.9467017266       -5.2246675426       -0.3164326642
 C          5.4389182899       -3.9593750478        2.0168287697
 H          5.7538181408       -3.3257603898        2.8412370990
 H          5.9715518403       -4.9024767098        2.0983151184
 H          4.3741501403       -4.1574986162        2.1214376102
 C          0.1108609842        3.4298317600       -1.7053813753
 H          0.6915427000        3.7094937312       -2.5925703180
 H         -0.4305765557        4.3328824584       -1.3991040235
 H         -0.5940109889        2.8220075538       -4.1959531320
 C         -1.1779295506        2.2613431818       -3.4807653351
 C         -2.7134560214        0.8164965270       -1.6516143762
 C         -2.1623700557        1.4144317934       -3.9426926863
 C         -0.9198429280        2.4196928574       -2.1191856000
 C         -1.7073181025        1.6997332304       -1.1754615880
 C         -2.9487873269        0.6679533947       -3.0427366723
 C         -3.5063825361        0.0868032828       -0.7377486495
 C         -5.0939343632       -1.4010261727        1.1058600843
 C         -4.5171778453       -0.7924250580       -1.2015913171
 C         -3.3121006305        0.2285479151        0.6555911246
 C         -4.1109385977       -0.5186695915        1.5466904239
 C         -5.2872800310       -1.5177789499       -0.2669419271
 H         -3.9389514301       -0.3861291384        2.6041577036
 H         -6.0464029522       -2.1782464812       -0.6544470275
 C         -1.5512881155        1.8368788374        0.2232427481
 H         -0.8122309384        2.5236069050        0.6063178912
 C         -2.3221578846        1.1280089377        1.1080142153
 H         -2.1811808035        1.2584448834        2.1706266558
 C         -3.9661981590       -0.2054539481       -3.4860959257
 H         -4.1401197622       -0.3029822521       -4.5472497652
 C         -4.7282224311       -0.9178433276       -2.5922349090
 H         -5.5028830729       -1.5807176864       -2.9475579517
 C         -5.9023727121       -2.1889937469        2.1198710035
 C         -6.6421523160       -1.2041850413        3.0374642619
 H         -7.3021872292       -0.5637350501        2.4567559960
 H         -5.9553989793       -0.5745556909        3.5965367739
 H         -7.2456072541       -1.7570837163        3.7515648990
 C         -4.9378360098       -3.0527598943        2.9476810097
 H         -4.2241374213       -2.4481364982        3.5008415241
 H         -4.3869919902       -3.7345361334        2.3030551900
 H         -5.5027894642       -3.6424676105        3.6637481581
 C         -6.9324536534       -3.1084135089        1.4614148445
 H         -7.6603424209       -2.5406993968        0.8863977423
 H         -7.4742056103       -3.6483799198        2.2330964946
 H         -6.4541750476       -3.8450977178        0.8196135243
 H         -2.3402958247        1.3197128205       -5.0031378099
