77
       -105.32089203
 H          0.7861336515        4.9760200066        0.0544036336
 C          1.3366602006        4.0501784215        0.1355929024
 C          2.7892191592        1.6766119476        0.3516447442
 C          1.0793485858        3.0242834149       -0.7737276357
 C          2.2801761746        3.9219055644        1.1321818685
 C          3.0251607444        2.7336437210        1.2679474876
 C          1.8227320988        1.8127990994       -0.6811465663
 H          2.4588832485        4.7379441596        1.8157958145
 C          3.5427800018        0.4867779090        0.4648806431
 C          5.0559890788       -1.9190337063        0.7010442228
 C          3.3477616845       -0.5772033371       -0.4457066092
 C          4.5154481170        0.3434132011        1.4862942560
 C          5.2489984758       -0.8589813764        1.5811338966
 C          4.1095200566       -1.7567321036       -0.3074647301
 H          5.9795809192       -0.9343847110        2.3705707967
 H          3.9384344046       -2.5492107362       -1.0202729237
 C          4.0028364535        2.5755024043        2.2748053094
 H          4.1769936984        3.3904724376        2.9613221688
 C          4.7270833089        1.4132721096        2.3833544811
 H          5.4724138924        1.3090741028        3.1575496742
 C          1.6623485743        0.7387308407       -1.5868237003
 H          0.9506070746        0.8307848274       -2.3926416187
 C          2.3951692933       -0.4146215245       -1.4751538625
 H          2.2526940816       -1.2147168026       -2.1861960994
 C          5.8278306308       -3.2216568157        0.8013251105
 C          4.8263754029       -4.3691458675        1.0059596626
 H          4.1405126930       -4.4640093605        0.1684285208
 H          4.2455000088       -4.2117589164        1.9123684505
 H          5.3650302713       -5.3070798245        1.1050203210
 C          6.8172652297       -3.2284696514        1.9679272495
 H          6.3077516532       -3.1057612115        2.9211876894
 H          7.5703469302       -2.4521920038        1.8537000489
 H          7.3336176481       -4.1841445078        1.9927947142
 C          6.6093378353       -3.4352087817       -0.5036410005
 H          5.9502628193       -3.5180168429       -1.3635401729
 H          7.1864793324       -4.3528000039       -0.4348868661
 H          7.2980806074       -2.6110341536       -0.6752390279
 C          0.1030516850        3.2886051924       -1.8834355571
 H          0.6919478596        3.5160050095       -2.7799880221
 H         -0.4498952610        4.2040653586       -1.6415557702
 H         -0.5528345028        2.5037012972       -4.3375082952
 C         -1.1482453522        1.9920502818       -3.5955153208
 C         -2.7160205137        0.6754387064       -1.6984176054
 C         -2.1238700759        1.1134477108       -4.0151339769
 C         -0.9144912657        2.2449477637       -2.2438751934
 C         -1.7160766785        1.5881391915       -1.2666619281
 C         -2.9273588217        0.4314776606       -3.0798694272
 C         -3.5273732738        0.0123129429       -0.7505977050
 C         -5.1576217686       -1.3352351169        1.1625078008
 C         -4.5336879267       -0.8937104427       -1.1705708238
 C         -3.3572060311        0.2495509625        0.6328812668
 C         -4.1767700529       -0.4297013028        1.5589461000
 C         -5.3252129361       -1.5481973504       -0.2020748440
 H         -4.0230127107       -0.2247027666        2.6076219871
 H         -6.0802803351       -2.2314387021       -0.5566182879
 C         -1.5812737324        1.8178481680        0.1221002634
 H         -0.8441118073        2.5248612033        0.4701062310
 C         -2.3699811670        1.1733397798        1.0398428206
 H         -2.2455050081        1.3746567794        2.0934127438
 C         -3.9389410979       -0.4692583583       -3.4798682716
 H         -4.0936041025       -0.6405050207       -4.5346508677
 C         -4.7197340198       -1.1156288401       -2.5526870646
 H         -5.4903766797       -1.7996799226       -2.8750799559
 C         -5.9918467323       -2.0436571694        2.2136247043
 C         -5.0510048981       -2.8506188792        3.1220303954
 H         -4.3451416763       -2.2115932501        3.6457529758
 H         -4.4912385607       -3.5799113368        2.5401742229
 H         -5.6350606363       -3.3842717342        3.8661912116
 C         -7.0148183911       -3.0024311589        1.6018500091
 H         -6.5287849233       -3.7862874889        1.0250535011
 H         -7.7267272335       -2.4736687680        0.9722537778
 H         -7.5761137282       -3.4820944276        2.3989841874
 C         -6.7432905822       -0.9905688032        3.0416260084
 H         -6.0636001861       -0.3254121547        3.5672071251
 H         -7.3646794580       -1.4866425430        3.7816134853
 H         -7.3871734525       -0.3907346749        2.4023389789
 H         -2.2828350924        0.9453355499       -5.0694832503
