77
       -105.32088519
 H          0.8960731286        5.0523877785        0.1516564980
 C          1.4155663417        4.1069713384        0.2070269450
 C          2.7798973352        1.6764466339        0.3563942108
 C          1.1107301177        3.1085926476       -0.7214633616
 C          2.3634184137        3.9239943680        1.1881420309
 C          3.0632599868        2.7035884782        1.2933660243
 C          1.8138207429        1.8732856106       -0.6669545922
 H          2.5801388362        4.7177587331        1.8867444218
 C          3.4837939154        0.4545016673        0.4408913765
 C          4.8812082945       -2.0241283836        0.6236210450
 C          3.2420868870       -0.5827727155       -0.4902100680
 C          4.4513508203        0.2504911822        1.4560003944
 C          5.1263907667       -0.9847510865        1.5228039257
 C          3.9470177615       -1.8017792250       -0.3786187154
 H          5.8580573980       -1.1123338306        2.3062144209
 H          3.7358595594       -2.5675500284       -1.1075923260
 C          4.0391408411        2.4868255887        2.2900293731
 H          4.2510115855        3.2807177676        2.9904464457
 C          4.7138381909        1.2932873595        2.3727135597
 H          5.4572730033        1.1423750358        3.1410077569
 C          1.6128230392        0.8280686773       -1.5990757323
 H          0.9084744313        0.9690325187       -2.4044977413
 C          2.2978902215       -0.3561357593       -1.5147892997
 H          2.1237102295       -1.1326940217       -2.2446035138
 C          5.6320251039       -3.3331910890        0.7762464392
 C          7.1385137913       -3.0570358976        0.6575970820
 H          7.4940610443       -2.3925940802        1.4400394888
 H          7.3696068253       -2.6090669221       -0.3063070273
 H          7.6851916937       -3.9920766848        0.7396794474
 C          5.2394197648       -4.3611300881       -0.2860872911
 H          5.4741519469       -4.0061281718       -1.2870244482
 H          4.1818118270       -4.6094317202       -0.2261098126
 H          5.8014934454       -5.2764080350       -0.1225901312
 C          5.3156876349       -3.9178170666        2.1620164240
 H          5.6419101858       -3.2622915124        2.9646035688
 H          5.8270656230       -4.8689020218        2.2790970469
 H          4.2464592390       -4.0886241056        2.2694227707
 C          0.1203021870        3.4281213016       -1.8031778584
 H          0.6965572094        3.6807020765       -2.7013849176
 H         -0.4147907263        4.3421837652       -1.5188904684
 H         -0.6230345976        2.7811202469       -4.2708628159
 C         -1.1947386080        2.2295104710       -3.5389935134
 C         -2.6934309669        0.8071622052       -1.6623170249
 C         -2.1799930110        1.3714497288       -3.9720006525
 C         -0.9174228606        2.4117891434       -2.1819215108
 C         -1.6879845446        1.7068370078       -1.2162309079
 C         -2.9483226306        0.6333768527       -3.0472550683
 C         -3.4650274652        0.0852083064       -0.7246629531
 C         -4.9998530724       -1.3905610687        1.1717244543
 C         -4.4724347301       -0.8112752368       -1.1601924465
 C         -3.2522177809        0.2504427843        0.6641191857
 C         -4.0251564196       -0.4924159810        1.5839392280
 C         -5.2155171008       -1.5276894763       -0.2007347946
 H         -3.8338846748       -0.3382823800        2.6337261016
 H         -5.9766930386       -2.2030943820       -0.5609918925
 C         -1.5165208395        1.8709466692        0.1785459868
 H         -0.7820224970        2.5743839005        0.5395948373
 C         -2.2669734021        1.1691911215        1.0857927818
 H         -2.1135002291        1.3202993276        2.1439148170
 C         -3.9641579892       -0.2547033294       -3.4620580078
 H         -4.1533649227       -0.3697979795       -4.5187949222
 C         -4.7052313331       -0.9604581653       -2.5459175637
 H         -5.4786432964       -1.6363326806       -2.8787439868
 C         -5.8251199135       -2.2151481397        2.1410808355
 C         -5.4537176915       -1.9487316822        3.6006846516
 H         -5.6365855858       -0.9118334734        3.8734286822
 H         -4.4133445998       -2.1992889895        3.7972724558
 H         -6.0688361326       -2.5706040274        4.2451195021
 C         -5.5876389431       -3.7036080974        1.8407105868
 H         -4.5333259776       -3.9510454832        1.9463360534
 H         -5.9054804678       -3.9723584447        0.8372132567
 H         -6.1527514788       -4.3093822336        2.5431818710
 C         -7.3095185352       -1.8728522722        1.9428125976
 H         -7.4836705185       -0.8136445330        2.1187224351
 H         -7.9089294964       -2.4396755687        2.6494331911
 H         -7.6537929540       -2.1166263628        0.9417228580
 H         -2.3737945517        1.2578280719       -5.0277500466
