77
       -105.32626454
 H          0.9103842537        4.2446533343        0.2580029526
 C          1.6600574997        3.4678356813        0.2301991434
 C          3.6200669742        1.4791895921        0.1707448473
 C          1.3008939133        2.1661091238        0.5610157990
 C          2.9542832343        3.7989013293       -0.1203583781
 C          3.9649932090        2.8188431706       -0.1439444642
 C          2.2847980507        1.1370466041        0.5115781069
 H          3.2035529518        4.8198611186       -0.3668732911
 C          4.6234790255        0.4850632465        0.1489110894
 C          6.6532819084       -1.5171983101        0.1279048172
 C          4.3080254824       -0.8592994947        0.4524033080
 C          5.9633577093        0.8195125383       -0.1713323408
 C          6.9488288049       -0.1919950522       -0.1730011951
 C          5.3310854714       -1.8309985067        0.4352541243
 H          7.9580876918        0.0980211679       -0.4176582665
 H          5.0590417069       -2.8480395912        0.6742381032
 C          5.3046623122        3.1318291043       -0.4675249856
 H          5.5554591204        4.1549416149       -0.7046074779
 C          6.2772127813        2.1616634725       -0.4779399609
 H          7.2970877471        2.4190237472       -0.7217338449
 C          1.9939940244       -0.2192083682        0.7923791276
 H          0.9819827822       -0.5089902763        1.0291378365
 C          2.9693019170       -1.1832103388        0.7633220829
 H          2.7186472935       -2.2097803423        0.9856077641
 C          7.7030220887       -2.6127191982        0.1344512269
 C          9.0949510867       -2.0933547036       -0.2290815641
 H          9.1116614124       -1.6711579531       -1.2314334570
 H          9.8009249609       -2.9190692786       -0.2093013788
 H          9.4400332848       -1.3497345764        0.4857765227
 C          7.3011632242       -3.6874236272       -0.8875403536
 H          7.2252559965       -3.2569539000       -1.8837498224
 H          6.3502857661       -4.1505694794       -0.6385181792
 H          8.0570810280       -4.4670941107       -0.9097057224
 C          7.7629140442       -3.2262234949        1.5419466907
 H          6.8193501325       -3.6837099369        1.8267024585
 H          8.0139755541       -2.4663938839        2.2788070165
 H          8.5296500843       -3.9950887229        1.5701132520
 C         -0.1028548932        1.8908451066        1.0122208635
 H         -0.5647649552        2.8423251351        1.2972622470
 H         -0.0728284800        1.2698014711        1.9127745508
 H          0.4382130479        1.3328647160       -1.5850528367
 C         -0.5633791574        1.0366786237       -1.3116054458
 C         -3.1694546715        0.2897663025       -0.6347176114
 C         -1.3804897639        0.4747438885       -2.2691899547
 C         -1.0008904528        1.2421521726       -0.0060232044
 C         -2.3269889604        0.8678696290        0.3518477289
 C         -2.6992281368        0.0879856248       -1.9576698777
 C         -4.4926287886       -0.0835844525       -0.3094602059
 C         -7.1636489719       -0.8326934419        0.3526265746
 C         -5.3410593410       -0.6540348540       -1.2902817701
 C         -4.9954018449        0.1111823620        0.9985305224
 C         -6.3214785392       -0.2695972855        1.3026759532
 C         -6.6573181053       -1.0141119763       -0.9348181804
 H         -6.6673884403       -0.1070116878        2.3108765638
 H         -7.2815332545       -1.4451217965       -1.7029907585
 C         -2.8586980137        1.0538661581        1.6512608028
 H         -2.2473612385        1.4970104691        2.4215280896
 C         -4.1439931017        0.6896324058        1.9636194855
 H         -4.5190454740        0.8474652818        2.9638062668
 C         -3.5599534171       -0.4817162418       -2.9220295931
 H         -3.1901569790       -0.6279052635       -3.9258585043
 C         -4.8447885537       -0.8429955612       -2.5995670788
 H         -5.4912075145       -1.2753257635       -3.3485781113
 C         -8.5906741278       -1.2464649833        0.6578554949
 C         -8.9726185225       -1.0009271553        2.1184585047
 H         -8.9150583004        0.0553904564        2.3715239360
 H         -8.3407632603       -1.5729675194        2.7944593951
 H         -9.9986586561       -1.3205338638        2.2785362179
 C         -8.7467215841       -2.7455800538        0.3586136008
 H         -9.7568880928       -3.0605396940        0.6039779935
 H         -8.0515090716       -3.3289427260        0.9585550056
 H         -8.5720904300       -2.9726069970       -0.6893616595
 C         -9.5378469382       -0.4339383941       -0.2389004726
 H         -9.4202180741        0.6312023579       -0.0515883045
 H        -10.5663129823       -0.7076985640       -0.0217606593
 H         -9.3572698554       -0.6194294091       -1.2941672272
 H         -1.0149521681        0.3323549315       -3.2749132103
