77
       -105.32045781
 H          0.9142686602        5.0837143756        0.3498037043
 C          1.4261215028        4.1327333656        0.3689500885
 C          2.7706940601        1.6873753779        0.4315950419
 C          1.1136371572        3.1731887593       -0.5940438201
 C          2.3732921485        3.9055542410        1.3440674782
 C          3.0604012395        2.6767655764        1.4062460147
 C          1.8100375877        1.9304199055       -0.5867570610
 H          2.5955548471        4.6719263822        2.0710024325
 C          3.4625714089        0.4562013650        0.4739446377
 C          4.8333668012       -2.0420864309        0.5807012028
 C          3.2137673097       -0.5419896257       -0.4960591700
 C          4.4236886099        0.2032971286        1.4849677602
 C          5.0861225170       -1.0428958328        1.5152652934
 C          3.9060273153       -1.7690319574       -0.4215915135
 H          5.8091805855       -1.2024658299        2.2990815184
 H          3.6951521302       -2.5092142664       -1.1785854209
 C          4.0313753745        2.4126974948        2.3971377522
 H          4.2498188223        3.1783291015        3.1264491965
 C          4.6927995630        1.2093264281        2.4387356377
 H          5.4315322648        1.0227840885        3.2037411982
 C          1.6050405265        0.9254996797       -1.5602042057
 H          0.9075881386        1.1044208398       -2.3640300395
 C          2.2787356906       -0.2677311259       -1.5179388528
 H          2.1018850571       -1.0138543248       -2.2782392656
 C          5.5205934830       -3.3945446438        0.6168624204
 C          6.4984802625       -3.5240021105        1.7860193948
 H          5.9906796582       -3.4156625639        2.7419569738
 H          7.3013892800       -2.7940292249        1.7142034800
 H          6.9512129551       -4.5114978964        1.7652985420
 C          6.2962975999       -3.5923875000       -0.6938809794
 H          7.0372431882       -2.8063956211       -0.8211683137
 H          5.6396102870       -3.5902305696       -1.5595515430
 H          6.8134802809       -4.5472069316       -0.6687335191
 C          4.4456849244       -4.4836493290        0.7589948188
 H          3.8701978376       -4.3353444158        1.6704043057
 H          4.9218674349       -5.4584121013        0.8115588055
 H          3.7607022825       -4.4908303827       -0.0846256114
 C          0.1213632054        3.5364389726       -1.6601313694
 H          0.6954877543        3.8248919467       -2.5488900875
 H         -0.4122108863        4.4389477762       -1.3383233115
 H         -0.6466281411        3.0128125109       -4.1476742763
 C         -1.2075590029        2.4211591556       -3.4391315560
 C         -2.6762771868        0.8935960020       -1.6225744058
 C         -2.1909627010        1.5786602687       -3.9055080490
 C         -0.9179525220        2.5369782103       -2.0772873367
 C         -1.6755648116        1.7801794547       -1.1409495686
 C         -2.9431387632        0.7872417602       -3.0120757869
 C         -3.4305411184        0.1162547216       -0.7155845229
 C         -4.9252253187       -1.4762732035        1.1173686914
 C         -4.4316157969       -0.7693144774       -1.1866011773
 C         -3.2058359074        0.2134269108        0.6777428438
 C         -3.9589572394       -0.5863768725        1.5656852320
 C         -5.1547730224       -1.5444283374       -0.2580053006
 H         -3.7588769878       -0.4834661404        2.6200871519
 H         -5.9113090504       -2.2102262970       -0.6449309511
 C         -1.4950777319        1.8784290806        0.2588885324
 H         -0.7674884547        2.5736774997        0.6484904018
 C         -2.2290293415        1.1233971217        1.1363657124
 H         -2.0686396286        1.2245508449        2.1994038565
 C         -3.9541320060       -0.0892911269       -3.4617374344
 H         -4.1534134078       -0.1519834667       -4.5210280960
 C         -4.6776512835       -0.8496691196       -2.5757266939
 H         -5.4470066180       -1.5165044043       -2.9351256750
 C         -5.7267642679       -2.3632741233        2.0508673610
 C         -7.2183885533       -2.0344567556        1.8873874049
 H         -7.5708731166       -2.2308288577        0.8787720308
 H         -7.4064512734       -0.9888182444        2.1207208746
 H         -7.8006518720       -2.6469238020        2.5698447433
 C         -5.3420692876       -2.1683403888        3.5183078070
 H         -5.5375208142       -1.1503371718        3.8476000031
 H         -4.2956896820       -2.4123204674        3.6897515272
 H         -5.9398327054       -2.8330774373        4.1357146042
 C         -5.4702154702       -3.8298945519        1.6695774099
 H         -5.7955407302       -4.0502763176        0.6567304104
 H         -6.0179066975       -4.4807338374        2.3450180101
 H         -4.4111094751       -4.0659461709        1.7505852162
 H         -2.3946011150        1.5171514515       -4.9637249987
