77
       -105.32629753
 H          0.5208853788        3.5233846945       -0.0389819348
 C          1.3854018862        2.8760819554       -0.0448179074
 C          3.6295339928        1.2168752024       -0.0786650173
 C          1.2505153310        1.5748145483       -0.5273952405
 C          2.5921454374        3.3631706914        0.4063071707
 C          3.7462631426        2.5531009823        0.3833385180
 C          2.3773434461        0.7088071182       -0.5192944948
 H          2.6680005018        4.3779562365        0.7661974421
 C          4.7776447711        0.3940400038       -0.1013912727
 C          7.0984313441       -1.2613326094       -0.1838491216
 C          4.6943880751       -0.9468438871       -0.5455982483
 C          6.0337360445        0.8997664210        0.3151926238
 C          7.1646162823        0.0594125589        0.2623915212
 C          5.8584881862       -1.7470510956       -0.5769652040
 H          8.1090448318        0.4730039867        0.5823589849
 H          5.7551952997       -2.7628081278       -0.9235514406
 C          5.0044985020        3.0361329106        0.8051164731
 H          5.0782000798        4.0546527611        1.1557553320
 C          6.1194667704        2.2351206745        0.7683477690
 H          7.0761085282        2.6213093472        1.0868507098
 C          2.3189214077       -0.6458613298       -0.9299554684
 H          1.3750358205       -1.0726572543       -1.2317038771
 C          3.4345118451       -1.4434861882       -0.9430591361
 H          3.3571668158       -2.4710074060       -1.2659972614
 C          8.3630506266       -2.0978589001       -0.2207011472
 C          9.3789595192       -1.4105753243       -1.1465159359
 H          8.9724700814       -1.3097590325       -2.1505542946
 H         10.2823738093       -2.0111209980       -1.2021700826
 H          9.6559125279       -0.4235179051       -0.7868665079
 C          8.1133973209       -3.5150050672       -0.7387757422
 H          7.7318959430       -3.5028943904       -1.7574231094
 H          7.4213935147       -4.0560223088       -0.0970624993
 H          9.0513843636       -4.0632758432       -0.7460375738
 C          8.9353358636       -2.1909221597        1.2025036863
 H          9.8315234601       -2.8045961537        1.1928411940
 H          8.2133645579       -2.6499432368        1.8745131903
 H          9.2028491463       -1.2153943704        1.5987987444
 C         -0.0860170584        1.1673114606       -1.0745576547
 H          0.0323149695        0.4113411204       -1.8559461860
 H         -0.5290768474        2.0485787947       -1.5488204070
 H          0.4006555087        0.4863305576        1.5029288383
 C         -0.6396842404        0.3591676474        1.2434624175
 C         -3.3391030975        0.0281621199        0.6035962981
 C         -1.5203928900       -0.0860321156        2.2092008404
 C         -1.0601382348        0.6544694886       -0.0477874297
 C         -2.4313258312        0.4735655214       -0.3938990965
 C         -2.8869661527       -0.2523796373        1.9183655353
 C         -4.7081895239       -0.1370576945        0.2962097505
 C         -7.4761941887       -0.4471890758       -0.3175897083
 C         -5.6240431810       -0.5678744339        1.2889297665
 C         -5.1889146053        0.1280841369       -1.0067110240
 C         -6.5623770313       -0.0350129122       -1.2856365752
 C         -6.9893028818       -0.7113878015        0.9577574818
 H         -6.8970829109        0.1736639057       -2.2905694401
 H         -7.6579927610       -1.0376690967        1.7381861581
 C         -2.9390776680        0.7178065561       -1.6922037866
 H         -2.2726424493        1.0403722593       -2.4765637283
 C         -4.2681375525        0.5505810533       -1.9895406864
 H         -4.6238814789        0.7468665869       -2.9899880877
 C         -3.8135808868       -0.6880646141        2.8928367140
 H         -3.4564902801       -0.9000471068        3.8895355915
 C         -5.1439890803       -0.8389984532        2.5890385546
 H         -5.8394523000       -1.1684274429        3.3463959944
 C         -8.9410109256       -0.5904165400       -0.6853763850
 C         -9.4590344545        0.7685682387       -1.1812034962
 H        -10.5153603909        0.6883825813       -1.4211290211
 H         -8.9379885361        1.1016962195       -2.0745535738
 H         -9.3402806217        1.5265298281       -0.4099332329
 C         -9.8021540865       -1.0358622442        0.4976395617
 H        -10.8374039004       -1.1140751176        0.1770815234
 H         -9.7637012592       -0.3130942240        1.3097002083
 H         -9.4976044831       -2.0134916024        0.8645562953
 C         -9.0677963815       -1.6371252536       -1.8033103274
 H         -8.6760321317       -2.5968535167       -1.4733710856
 H         -8.5355102851       -1.3382404085       -2.7021388661
 H        -10.1148575705       -1.7663720304       -2.0616950565
 H         -1.1636826554       -0.3042807668        3.2044798967
