77
       -105.32629732
 H          0.8668944609        4.1786612484        0.1102523701
 C          1.6297841827        3.4149852560        0.0780325761
 C          3.6233905124        1.4616905317       -0.0176495940
 C          1.2987140811        2.1447207213       -0.3803248090
 C          2.9120777929        3.7320775534        0.4809434356
 C          3.9396332707        2.7708265921        0.4281717691
 C          2.2992089543        1.1311309288       -0.4098466453
 H          3.1393239577        4.7288114197        0.8275444351
 C          4.6442920970        0.4868977072       -0.0743385528
 C          6.7114296714       -1.4714697980       -0.2210238775
 C          4.3570651972       -0.8282391464       -0.5066195767
 C          5.9737495605        0.8122298726        0.2949900413
 C          6.9783499323       -0.1767785398        0.2108402383
 C          5.3978113203       -1.7790329243       -0.5689495510
 H          7.9792366562        0.1061567695        0.4950655017
 H          5.1468073636       -2.7742534406       -0.9036434461
 C          5.2684651119        3.0735166076        0.8022577580
 H          5.4968806269        4.0728973407        1.1412622130
 C          6.2585572989        2.1236655941        0.7341561993
 H          7.2700766872        2.3737607484        1.0171489987
 C          2.0359530426       -0.1986532548       -0.8166539007
 H          1.0320713696       -0.4830562388       -1.0913621603
 C          3.0278744790       -1.1448769105       -0.8626545620
 H          2.7981677161       -2.1509404236       -1.1807041165
 C          7.7822324043       -2.5415460898       -0.3232319584
 C          9.1644000760       -2.0289536784        0.0844924543
 H          9.1770547202       -1.7029654535        1.1221392063
 H          9.4901052214       -1.2138776689       -0.5579438887
 H          9.8876202446       -2.8337234324       -0.0150271531
 C          7.8530406828       -3.0294637570       -1.7784525100
 H          6.9180197928       -3.4771241164       -2.1039586914
 H          8.6330717007       -3.7795611637       -1.8719258185
 H          8.0910543113       -2.2042911790       -2.4461251281
 C          7.4015939160       -3.7082640251        0.6014803349
 H          6.4585422490       -4.1644870620        0.3130236424
 H          7.3196258300       -3.3675415665        1.6313644469
 H          8.1713929341       -4.4731615867        0.5555422728
 C         -0.0946429585        1.8928768149       -0.8756651496
 H         -0.0481688797        1.3278328165       -1.8116885648
 H         -0.5542404756        2.8590460384       -1.1098858997
 H          0.4317963570        1.1076423931        1.6659430336
 C         -0.5745698668        0.8543584262        1.3681429327
 C         -3.1919858808        0.2134600918        0.6299000990
 C         -1.4023716472        0.2261405336        2.2739333449
 C         -1.0067974694        1.1793362350        0.0853403918
 C         -2.3385610693        0.8599931850       -0.3033110089
 C         -2.7269020883       -0.1100039306        1.9303079742
 C         -4.5205352302       -0.1089016604        0.2735924829
 C         -7.2022923643       -0.7549896704       -0.4504696208
 C         -5.3784841471       -0.7505359033        1.2006657189
 C         -5.0186510953        0.2072201580       -1.0123113490
 C         -6.3509987185       -0.1225479121       -1.3473355021
 C         -6.6989261054       -1.0600547570        0.8145226178
 H         -6.6943028269        0.1356130951       -2.3363149906
 H         -7.3288579303       -1.5516879639        1.5404433910
 C         -2.8648826955        1.1650005201       -1.5822685589
 H         -2.2441344121        1.6601804131       -2.3122858902
 C         -4.1560827260        0.8516301117       -1.9243053595
 H         -4.5269613980        1.1008199025       -2.9073233428
 C         -3.5975231590       -0.7480545325        2.8414718240
 H         -3.2313236438       -0.9865138653        3.8288015788
 C         -4.8869793985       -1.0608784843        2.4883954275
 H         -5.5408162652       -1.5474046808        3.1966017576
 C         -8.6334492605       -1.1238084520       -0.7918316917
 C         -9.0272199628       -0.6975395329       -2.2069751923
 H         -8.4119953707       -1.1911923604       -2.9560285196
 H         -8.9559671862        0.3810012262       -2.3294928040
 H        -10.0595737867       -0.9813780818       -2.3919559178
 C         -9.5754805168       -0.4327055098        0.2059269968
 H        -10.6057186892       -0.6647558959       -0.0482882525
 H         -9.4482559310        0.6469447610        0.1659096223
 H         -9.4016666460       -0.7621985846        1.2264942625
 C         -8.7840346002       -2.6493530433       -0.6808218960
 H         -9.7994258991       -2.9331976969       -0.9420022904
 H         -8.5853295724       -3.0049123992        0.3264769553
 H         -8.1019208722       -3.1507476383       -1.3641093998
 H         -1.0403595880       -0.0091359334        3.2633461888
