77
       -105.32626241
 H          1.0033131604        4.3750842118       -0.3312455033
 C          1.7220770443        3.5702348186       -0.2889179180
 C          3.5990274298        1.5037579249       -0.1928533592
 C          1.3077658790        2.2739010129       -0.5837098587
 C          3.0292888688        3.8565532375        0.0445459979
 C          4.0006907035        2.8354105823        0.0874919181
 C          2.2485637452        1.2090121854       -0.5168638553
 H          3.3225129111        4.8719066296        0.2642514665
 C          4.5609105205        0.4700865039       -0.1546137758
 C          6.5025133145       -1.6168807015       -0.1063047902
 C          4.1901197141       -0.8679885612       -0.4253565254
 C          5.9144599952        0.7581924769        0.1490634284
 C          6.8535879858       -0.2934786471        0.1642725993
 C          5.1709100041       -1.8844517437       -0.3947398627
 H          7.8785127357       -0.0445665463        0.3943349492
 H          4.8507057696       -2.8915794270       -0.6084360097
 C          5.3529308873        3.1018454985        0.3962672790
 H          5.6463661298        4.1191067169        0.6081280750
 C          6.2855829174        2.0935242988        0.4236354576
 H          7.3166199616        2.3146925704        0.6557371241
 C          1.9019050511       -0.1411661538       -0.7657230934
 H          0.8775268332       -0.3943126240       -0.9914384277
 C          2.8373891005       -1.1428330722       -0.7203541562
 H          2.5440444768       -2.1630808126       -0.9181672844
 C          7.5720474428       -2.6920469252       -0.0765310864
 C          8.6453685898       -2.3452216498       -1.1200866978
 H          9.1341464265       -1.3995722860       -0.9030976275
 H          8.2062597828       -2.2860951964       -2.1136446464
 H          9.4063367703       -3.1203080731       -1.1282708334
 C          7.0154931442       -4.0809113634       -0.3940053059
 H          7.8236766775       -4.8062062198       -0.3588328313
 H          6.5851271742       -4.1167906893       -1.3924061693
 H          6.2685492236       -4.3853608514        0.3359673156
 C          8.1996188493       -2.7255272775        1.3256555637
 H          7.4422903002       -2.9368912097        2.0775872711
 H          8.6829011900       -1.7859552025        1.5783079095
 H          8.9507701405       -3.5090161914        1.3676063378
 C         -0.1092001240        2.0398235253       -1.0157176707
 H         -0.1037088285        1.4359855921       -1.9281664999
 H         -0.5571215144        3.0053536561       -1.2755619435
 H          0.4137446811        1.5781309206        1.5983253232
 C         -0.5734325991        1.2383931958        1.3229958605
 C         -3.1425608331        0.3800089126        0.6383791110
 C         -1.3813437687        0.6749749959        2.2870467111
 C         -1.0017421801        1.3906327842        0.0067332829
 C         -2.3114776536        0.9654794623       -0.3537384314
 C         -2.6802816261        0.2291752840        1.9708986151
 C         -4.4465823006       -0.0522488299        0.3087657973
 C         -7.0742500366       -0.9325142087       -0.3652383043
 C         -5.2816821603       -0.6355477359        1.2934598687
 C         -4.9431027139        0.0942484369       -1.0079314726
 C         -6.2481482419       -0.3496503813       -1.3174318540
 C         -6.5757538736       -1.0629436849        0.9314387639
 H         -6.5904186300       -0.2209487057       -2.3317537060
 H         -7.1887951683       -1.5058307612        1.7018416429
 C         -2.8389799273        1.1077166289       -1.6604679795
 H         -2.2394134814        1.5620317583       -2.4335232338
 C         -4.1067656295        0.6891988815       -1.9761922865
 H         -4.4790460795        0.8148841271       -2.9819570337
 C         -3.5293519513       -0.3494918388        2.9401442044
 H         -3.1664273216       -0.4543292177        3.9516205441
 C         -4.7941125835       -0.7717044801        2.6125200016
 H         -5.4313643628       -1.2117648908        3.3648676233
 C         -8.4737563719       -1.4260982991       -0.6788679973
 C         -8.8604579378       -1.2020078691       -2.1416218751
 H         -8.8557930089       -0.1441499986       -2.3949403141
 H         -9.8678095562       -1.5742640591       -2.3065072740
 H         -8.1969728970       -1.7411113077       -2.8143413037
 C         -9.4749740029       -0.6747184448        0.2120018544
 H        -10.4841853915       -1.0009997205       -0.0222571843
 H         -9.4124848813        0.3970192960        0.0362739361
 H         -9.3004419523       -0.8609805066        1.2680519541
 C         -8.5392487100       -2.9326644635       -0.3818375468
 H         -8.3461174940       -3.1496245908        0.6651206931
 H         -7.8127091363       -3.4724478857       -0.9854827519
 H         -9.5298295298       -3.3068986070       -0.6236782085
 H         -1.0238289495        0.5754000688        3.3007529401
