77
       -105.32621838
 H          0.5188230254        3.5436233983        0.0597563783
 C          1.3838799996        2.8970271612        0.0626904052
 C          3.6337016134        1.2454122196        0.0874425597
 C          1.2538858623        1.5979157010        0.5448493824
 C          2.5899684263        3.3877841412       -0.3933009812
 C          3.7446316586        2.5819148609       -0.3746897213
 C          2.3849053205        0.7335586793        0.5329549472
 H          2.6608003339        4.4030561197       -0.7529740224
 C          4.7842563361        0.4256467670        0.1049206460
 C          7.1137116082       -1.2185392430        0.1733513920
 C          4.7044918946       -0.9144459240        0.5490938838
 C          6.0387994766        0.9334224457       -0.3167804315
 C          7.1761564344        0.0976706280       -0.2713342742
 C          5.8718290230       -1.7069774553        0.5737193439
 H          8.1144686649        0.5179588328       -0.5961783179
 H          5.7781958064       -2.7248420401        0.9210863823
 C          5.0014599879        3.0673062591       -0.8010543894
 H          5.0717861940        4.0861630053       -1.1515046784
 C          6.1182951175        2.2686221486       -0.7690710658
 H          7.0726681743        2.6573082530       -1.0913233399
 C          2.3300035170       -0.6202235823        0.9436549457
 H          1.3881710414       -1.0486981654        1.2493773959
 C          3.4476332324       -1.4154934364        0.9522689167
 H          3.3741189391       -2.4432309021        1.2754153942
 C          8.3307538505       -2.1220466896        0.2395401940
 C          8.0805182070       -3.3572390615       -0.6392470294
 H          7.8958380292       -3.0611989482       -1.6696510420
 H          7.2326303743       -3.9402838468       -0.2904628943
 H          8.9569535285       -3.9985712602       -0.6206470057
 C          8.5393720866       -2.5528471993        1.6997789004
 H          9.4220439823       -3.1819381389        1.7700086689
 H          7.6934637231       -3.1182289163        2.0812226076
 H          8.6880141553       -1.6832929178        2.3363212671
 C          9.6034678278       -1.4285018095       -0.2491666789
 H          9.5148370518       -1.1243578511       -1.2898030286
 H         10.4373459284       -2.1216626305       -0.1799383465
 H          9.8446778789       -0.5634348330        0.3644953535
 C         -0.0792443566        1.1847176252        1.0968297257
 H         -0.5307819898        2.0675718859        1.5593928373
 H          0.0469031473        0.4406399286        1.8886455434
 H          0.4272763575        0.4366567288       -1.4570077394
 C         -0.6154981556        0.3166473585       -1.2041193559
 C         -3.3204140314        0.0079239551       -0.5771437498
 C         -1.4867044107       -0.1530206975       -2.1636757946
 C         -1.0474361528        0.6469351124        0.0774979889
 C         -2.4197089855        0.4772462610        0.4158611554
 C         -2.8579962341       -0.3093399373       -1.8800120356
 C         -4.6927079852       -0.1440826274       -0.2776081566
 C         -7.4661762385       -0.4239862745        0.3256059723
 C         -5.5991909320       -0.5985669132       -1.2670761305
 C         -5.1863439656        0.1582202967        1.0132802723
 C         -6.5643775607        0.0112995115        1.2880267303
 C         -6.9650820160       -0.7266349586       -0.9408850972
 H         -6.9022625129        0.2527413566        2.2830721198
 H         -7.6328079596       -1.0725673588       -1.7154676805
 C         -2.9397948417        0.7557622872        1.7033743269
 H         -2.2793534347        1.0947616357        2.4859229093
 C         -4.2720826717        0.6015414149        1.9922881554
 H         -4.6359915604        0.8244210819        2.9841901702
 C         -3.7753116764       -0.7692043579       -2.8508044492
 H         -3.4094103862       -1.0094409881       -3.8378175666
 C         -5.1089875140       -0.9080243667       -2.5555254825
 H         -5.7985219564       -1.2565660714       -3.3097394684
 C         -8.9505232702       -0.5791567201        0.5966551774
 C         -9.3450586671       -2.0449781686        0.3581928444
 H        -10.4026593931       -2.1743965104        0.5693152685
 H         -8.7817526071       -2.7034211258        1.0159190860
 H         -9.1691387199       -2.3518961858       -0.6690652005
 C         -9.7238991668        0.3330454290       -0.3683793526
 H         -9.5573363760        0.0613724211       -1.4070763364
 H         -9.4279908541        1.3709942651       -0.2320003196
 H        -10.7885157869        0.2523003286       -0.1685248735
 C         -9.3276214986       -0.2009162318        2.0299077770
 H        -10.3982593111       -0.3288420389        2.1637859402
 H         -9.0925336255        0.8402642319        2.2396861195
 H         -8.8275179335       -0.8407936782        2.7535899593
 H         -1.1226926530       -0.3992467972       -3.1496975331
