77
       -105.32621689
 H         -0.2534515136        1.5613886166       -0.5702658742
 C          0.7674645146        1.2568343058       -0.3943515216
 C          3.4156269476        0.4962147962        0.0689189134
 C          1.1077145614       -0.0849354133       -0.5187483688
 C          1.7034997075        2.2143768891       -0.0578175706
 C          3.0466066504        1.8620168843        0.1701020054
 C          2.4508007110       -0.4908305598       -0.2661394104
 H          1.4091169545        3.2495189387        0.0274328061
 C          4.7589357934        0.1265001430        0.3034972957
 C          7.4744453775       -0.6173601600        0.7589943785
 C          5.1564523544       -1.2276979542        0.2190647043
 C          5.7317103621        1.1063059049        0.6253020175
 C          7.0693520636        0.7100738137        0.8441623572
 C          6.5054803704       -1.5701633243        0.4503358475
 H          7.7830886022        1.4819812019        1.0837887424
 H          6.7761788228       -2.6128420083        0.3795735625
 C          4.0292004368        2.8239212010        0.4975805102
 H          3.7354677981        3.8602557752        0.5723460394
 C          5.3345127468        2.4584449297        0.7160370353
 H          6.0734896437        3.2063942246        0.9615401140
 C          2.8755453628       -1.8393548912       -0.3308100696
 H          2.1636693988       -2.6150804882       -0.5651658398
 C          4.1792987953       -2.1964216068       -0.0956352348
 H          4.4710221850       -3.2344808809       -0.1531533621
 C          8.9084702397       -1.0566799001        0.9871605579
 C          8.9404311839       -2.0393847144        2.1681510233
 H          8.5535155878       -1.5665413861        3.0682253908
 H          9.9652295367       -2.3458269478        2.3570628041
 H          8.3550722181       -2.9329273112        1.9694687092
 C          9.8378218210        0.1157357714        1.3053062151
 H          9.5378783070        0.6232262684        2.2194490991
 H          9.8697395041        0.8297196069        0.4852388743
 H         10.8471612542       -0.2580696405        1.4540420136
 C          9.4183218721       -1.7521509097       -0.2846530954
 H          8.8442720091       -2.6444674112       -0.5187197109
 H         10.4541047775       -2.0482197631       -0.1456151133
 H          9.3672800136       -1.0762609062       -1.1355501598
 C          0.0737685272       -1.1040705199       -0.9155256619
 H         -0.1174345645       -1.7609804726       -0.0629853200
 H          0.5003422256       -1.7280486872       -1.7074984022
 H         -0.3144677207       -0.1786328065       -3.3556905610
 C         -1.2250459322       -0.1159527326       -2.7782188827
 C         -3.5865608797        0.0197554820       -1.2973709471
 C         -2.3731153992        0.3473918517       -3.3804486480
 C         -1.2063026630       -0.5272072467       -1.4451830690
 C         -2.3923577761       -0.4284178205       -0.6692286699
 C         -3.5853194783        0.4074589575       -2.6619483886
 C         -4.7948708714        0.0771638257       -0.5675563125
 C         -7.2403765749        0.1427034972        0.8986843478
 C         -5.9945498940        0.4972839218       -1.1931125292
 C         -4.8299968460       -0.2910342898        0.7982762157
 C         -6.0535417596       -0.2489820163        1.5034692024
 C         -7.1892629048        0.5178762609       -0.4446932041
 H         -6.0397178154       -0.5384249353        2.5420072158
 H         -8.0886964292        0.8372119584       -0.9491206958
 C         -2.4517302822       -0.7555722882        0.7081156710
 H         -1.5540540872       -1.0542009360        1.2268669780
 C         -3.6250068329       -0.6900622422        1.4150394952
 H         -3.6368428103       -0.9513876781        2.4627179017
 C         -4.7876026502        0.8388628815       -3.2641453946
 H         -4.7706269360        1.1347304794       -4.3023827208
 C         -5.9619007143        0.8780052853       -2.5532145280
 H         -6.8749860853        1.2009582138       -3.0304075737
 C         -8.5687349425        0.1743240212        1.6299376284
 C         -9.5410243198       -0.7782344015        0.9163348575
 H         -9.1456966796       -1.7917346497        0.9094982305
 H         -9.7283252287       -0.4753011437       -0.1100993470
 H        -10.4918922992       -0.7856250370        1.4414013573
 C         -9.1224200475        1.6072946160        1.5927093312
 H         -9.3100746131        1.9457900167        0.5776298352
 H         -8.4257908626        2.2976580699        2.0634444490
 H        -10.0619988272        1.6462641767        2.1363345997
 C         -8.4439280057       -0.2616082485        3.0905555391
 H         -8.0829989215       -1.2847783649        3.1693256862
 H         -9.4228246305       -0.2219850995        3.5603203646
 H         -7.7848981189        0.4009954260        3.6473212271
 H         -2.3592367762        0.6507230179       -4.4162312887
