77
       -105.32617970
 H          0.9078897806        4.2675664903        0.0341585605
 C          1.6555224080        3.4883780019        0.0451188774
 C          3.6104600903        1.4941157067        0.0857745310
 C          1.2938779453        2.2066831644        0.4442355596
 C          2.9494596892        3.7967917217       -0.3266167479
 C          3.9574531567        2.8139308416       -0.3019945297
 C          2.2752749846        1.1740102340        0.4476485401
 H          3.2005034382        4.8025289433       -0.6278416564
 C          4.6116430380        0.4979369560        0.1154051187
 C          6.6381702907       -1.5057293259        0.2049476911
 C          4.2940863240       -0.8270630663        0.4927880559
 C          5.9513731982        0.8112099611       -0.2261977892
 C          6.9351757505       -0.2005426033       -0.1723162732
 C          5.3155214267       -1.7998759608        0.5293135822
 H          7.9443876015        0.0731795366       -0.4352951417
 H          5.0418899718       -2.8016315746        0.8244233950
 C          5.2964805156        3.1051138883       -0.6478344706
 H          5.5486158511        4.1128763067       -0.9422992147
 C          6.2668263391        2.1334553608       -0.6083586372
 H          7.2862533272        2.3744886610       -0.8700544865
 C          1.9819381974       -0.1646633285        0.8008103212
 H          0.9697315011       -0.4392606382        1.0541325462
 C          2.9551516182       -1.1309477752        0.8223409712
 H          2.7027327661       -2.1435463611        1.0998644411
 C          7.6867920279       -2.5999553565        0.2770282788
 C          7.2830377561       -3.7359111394       -0.6755678938
 H          8.0409575974       -4.5136333254       -0.6537330913
 H          7.2014091319       -3.3672958003       -1.6958204449
 H          6.3347515197       -4.1855414271       -0.3941781648
 C          7.7476052455       -3.1245930509        1.7200185968
 H          6.8021243284       -3.5573196215        2.0355302231
 H          8.0054684122       -2.3216429890        2.4071144856
 H          8.5098058422       -3.8948934497        1.7941495750
 C          9.0787168227       -2.1053303610       -0.1194750603
 H          9.0946055930       -1.7462203850       -1.1461242540
 H          9.7840874114       -2.9287891450       -0.0490310998
 H          9.4251968880       -1.3190320164        0.5474156088
 C         -0.1110370234        1.9566431114        0.9063296465
 H         -0.5731131250        2.9214501270        1.1419034193
 H         -0.0842966044        1.3810914932        1.8365919376
 H          0.4339952748        1.2879520075       -1.6629814363
 C         -0.5652483515        0.9971875059       -1.3755143100
 C         -3.1658648101        0.2599215606       -0.6687054139
 C         -1.3782357574        0.3846110701       -2.3081963829
 C         -1.0043512822        1.2580302675       -0.0829232399
 C         -2.3304897041        0.8912994825        0.2909195439
 C         -2.6916252391        0.0007788931       -1.9800800726
 C         -4.4861045913       -0.1103223749       -0.3280607917
 C         -7.1515416975       -0.8573939691        0.3587799088
 C         -5.3284491993       -0.7370969237       -1.2806369111
 C         -4.9916297662        0.1434240153        0.9677709888
 C         -6.3137804804       -0.2356884235        1.2827210756
 C         -6.6433560304       -1.0975995567       -0.9130055729
 H         -6.6697841379       -0.0275405004        2.2804247585
 H         -7.2555024975       -1.5738393920       -1.6620911556
 C         -2.8651301726        1.1360483816        1.5783343394
 H         -2.2591311709        1.6216958155        2.3268659990
 C         -4.1482258110        0.7765284403        1.9059751115
 H         -4.5268613152        0.9798183020        2.8965680254
 C         -3.5468394374       -0.6227962558       -2.9169035815
 H         -3.1747432027       -0.8119350247       -3.9127035209
 C         -4.8278189956       -0.9824486602       -2.5780831830
 H         -5.4686818695       -1.4569186441       -3.3060523428
 C         -8.5617184184       -1.2397739401        0.7668996611
 C         -8.4854438922       -2.2088382939        1.9570364692
 H         -8.0153570218       -1.7526785148        2.8239003075
 H         -7.9223862632       -3.0999551951        1.6879466164
 H         -9.4886464881       -2.5122882656        2.2421328173
 C         -9.3355842871       -1.9200180103       -0.3636144011
 H        -10.3326553949       -2.1723789615       -0.0132659321
 H         -8.8529920249       -2.8441373184       -0.6741928002
 H         -9.4466830523       -1.2601772231       -1.2211795285
 C         -9.3162365825        0.0341030608        1.1779299674
 H         -8.8530702761        0.5238041180        2.0301653799
 H        -10.3359461438       -0.2207965666        1.4518272096
 H         -9.3505816660        0.7404916912        0.3513527968
 H         -1.0096848135        0.2002080876       -3.3059869052
