77
       -105.32638335
 H         -0.3809568191        1.0156808726       -1.5390662305
 C          0.6122560633        0.7342251527       -1.2234521283
 C          3.2003343532        0.0253872747       -0.4459995523
 C          1.0420656963        1.0717204970        0.0569135389
 C          1.4260206394        0.0562035775       -2.1057594932
 C          2.7352047866       -0.3159209649       -1.7417780984
 C          2.3593012194        0.7179968801        0.4652256681
 H          1.0648917704       -0.1902325130       -3.0927766306
 C          4.5168988695       -0.3255066633       -0.0726011487
 C          7.1804937435       -1.0134717904        0.6792644845
 C          5.0160710097        0.0089741105        1.2082384925
 C          5.3622225343       -1.0133826527       -0.9778651091
 C          6.6735913507       -1.3431976391       -0.5780811838
 C          6.3396015282       -0.3415213867        1.5570418861
 H          7.2941471688       -1.8693413475       -1.2877025550
 H          6.6847932054       -0.0666527678        2.5408519228
 C          3.5911926265       -1.0053406243       -2.6290963234
 H          3.2235448205       -1.2601667832       -3.6117856323
 C          4.8686796675       -1.3461470109       -2.2592023607
 H          5.5118629663       -1.8712822629       -2.9493515511
 C          2.8835860469        1.0328776549        1.7426455053
 H          2.2703072710        1.5571632440        2.4585028429
 C          4.1638231375        0.6932783781        2.1006760628
 H          4.5341319218        0.9530055549        3.0811779481
 C          8.6047845729       -1.3975392966        1.0322172852
 C          9.5579724149       -0.7471446424        0.0175983254
 H         10.5842882258       -0.9902090477        0.2773049215
 H          9.4489193566        0.3351601110        0.0310244351
 H          9.3779569884       -1.0986270158       -0.9945389777
 C          8.7317936425       -2.9274731702        0.9608194245
 H          9.7426100528       -3.2200455830        1.2299955485
 H          8.5280064145       -3.3060286011       -0.0370270904
 H          8.0418341499       -3.4003824396        1.6564009728
 C          9.0046130101       -0.9406388341        2.4360262470
 H         10.0322282022       -1.2359059641        2.6293211944
 H          8.3812051862       -1.4045718653        3.1971837721
 H          8.9504947304        0.1417567191        2.5301060706
 C          0.1436740148        1.8296694461        0.9973187061
 H          0.6485672218        2.7662418088        1.2556226740
 H          0.0388893472        1.2584088275        1.9253455464
 H         -0.6667652672        4.1887842396        0.0572486784
 C         -1.4665094842        3.4636008347        0.0309113914
 C         -3.5491511578        1.6043372032       -0.0345252209
 C         -2.7093917145        3.8541772377       -0.4205578503
 C         -1.2177056766        2.1634509423        0.4638132256
 C         -2.2655572598        1.2024425520        0.4210500631
 C         -3.7815808534        2.9392849934       -0.4552301242
 C         -4.6122572850        0.6749005280       -0.0709101652
 C         -6.7547744699       -1.2049915273       -0.1381882953
 C         -5.8983703010        1.0702743154       -0.5146109762
 C         -4.4110089972       -0.6649078501        0.3364048544
 C         -5.4891043465       -1.5772122579        0.2949094097
 C         -6.9394752600        0.1196162005       -0.5369515408
 H         -5.2977485753       -2.5886815139        0.6155908017
 H         -7.9092144671        0.4490263330       -0.8781798449
 C         -2.0901070352       -0.1473438076        0.8123943605
 H         -1.1205032267       -0.4831943602        1.1458374525
 C         -3.1238300585       -1.0476245754        0.7712150241
 H         -2.9598994886       -2.0698313209        1.0782777376
 C         -5.0703457978        3.3146684028       -0.8945434003
 H         -5.2349143476        4.3343874374       -1.2089873645
 C         -6.1015567715        2.4076042943       -0.9224694282
 H         -7.0817616449        2.7108325194       -1.2586935397
 C         -7.9238419871       -2.1696243704       -0.1964706928
 C         -8.4058641011       -2.2668225488       -1.6525223083
 H         -7.6037946479       -2.6202759490       -2.2970712085
 H         -8.7545996906       -1.3097761173       -2.0304168914
 H         -9.2302023482       -2.9713629795       -1.7150221166
 C         -9.0552921633       -1.6302775231        0.6921818215
 H         -9.8875805851       -2.3281916384        0.6818578163
 H         -9.4227106116       -0.6682854111        0.3461749350
 H         -8.7140229860       -1.5198739898        1.7191935652
 C         -7.5510107446       -3.5716789069        0.2878675483
 H         -6.7738429348       -4.0125103129       -0.3327262706
 H         -8.4243950597       -4.2149788933        0.2261750336
 H         -7.2249398414       -3.5585639054        1.3255601359
 H         -2.8736416736        4.8706547487       -0.7445004673
