77
       -105.32617891
 H          0.9195428346        4.2476452001        0.4088658177
 C          1.6653808705        3.4686550762        0.3530744683
 C          3.6156155719        1.4736831470        0.2226061287
 C          1.2990448898        2.1572289860        0.6337395130
 C          2.9618565839        3.8059675506        0.0169987343
 C          3.9676885896        2.8223367110       -0.0416933553
 C          2.2779183110        1.1257553638        0.5475931890
 H          3.2165938398        4.8341094314       -0.1910897486
 C          4.6142261150        0.4760903761        0.1660556254
 C          6.6341179873       -1.5341929207        0.0750956725
 C          4.2913764834       -0.8770218031        0.4185094580
 C          5.9565050482        0.8154648593       -0.1386414952
 C          6.9370809256       -0.2001849043       -0.1752564735
 C          5.3096163310       -1.8525304498        0.3674952073
 H          7.9485093351        0.0936819598       -0.4060355863
 H          5.0319371146       -2.8763746046        0.5677772540
 C          5.3094103620        3.1402372280       -0.3516727126
 H          5.5655685011        4.1700164509       -0.5511652451
 C          6.2773308688        2.1663466384       -0.3956713243
 H          7.2988296525        2.4274691359       -0.6284076681
 C          1.9796178723       -0.2386280926        0.7762655746
 H          0.9655549997       -0.5320468519        0.9993361195
 C          2.9502099064       -1.2057411362        0.7134033210
 H          2.6939108178       -2.2387400791        0.8959350504
 C          7.6777564808       -2.6350276993        0.0414145210
 C          9.0738452088       -2.1094217455       -0.2962296962
 H          9.7751874330       -2.9392473516       -0.3068457399
 H          9.4202440607       -1.3967744270        0.4489046321
 H          9.0967170745       -1.6477644142       -1.2808985922
 C          7.2728362443       -3.6645864255       -1.0249775541
 H          7.2020920437       -3.1930864854       -2.0028260519
 H          6.3186225707       -4.1319929002       -0.7975908901
 H          8.0243836818       -4.4470237565       -1.0772427142
 C          7.7295779231       -3.3059623476        1.4227485747
 H          7.9839414937       -2.5787083223        2.1906833702
 H          8.4909403040       -4.0806570386        1.4212348883
 H          6.7822536354       -3.7682401150        1.6864465980
 C         -0.1074634436        1.8710255884        1.0691655148
 H         -0.5676691675        2.8127560178        1.3873211676
 H         -0.0832853724        1.2165368387        1.9458387789
 H          0.4382348095        1.4227032013       -1.5482313575
 C         -0.5624166262        1.1123325575       -1.2873546832
 C         -3.1662876828        0.3264723920       -0.6474362457
 C         -1.3770652195        0.5850402047       -2.2694777813
 C         -1.0017196824        1.2632383951        0.0225302282
 C         -2.3294550636        0.8706062740        0.3629674935
 C         -2.6921610560        0.1794138436       -1.9760983737
 C         -4.4876584718       -0.0679605734       -0.3399328792
 C         -7.1536158532       -0.8684895494        0.2814842595
 C         -5.3315292708       -0.6083143754       -1.3427861033
 C         -4.9926334095        0.0746388866        0.9729847550
 C         -6.3150738399       -0.3285838195        1.2548036292
 C         -6.6468307812       -0.9974148992       -1.0069145954
 H         -6.6706440282       -0.2058617857        2.2667196998
 H         -7.2603090465       -1.4056341852       -1.7941088174
 C         -2.8640696289        1.0063090297        1.6664006628
 H         -2.2572379773        1.4248602874        2.4537507291
 C         -4.1481777783        0.6234576449        1.9619190367
 H         -4.5267077288        0.7423246543        2.9661822818
 C         -3.5492601733       -0.3580285643       -2.9632538640
 H         -3.1776342521       -0.4615755450       -3.9717335041
 C         -4.8314373570       -0.7416845467       -2.6566965618
 H         -5.4735218944       -1.1495581022       -3.4229441391
 C         -8.5629016951       -1.2858331825        0.6571366794
 C         -9.3180770593       -0.0530779098        1.1777498003
 H         -9.3537084129        0.7223904599        0.4156642427
 H         -8.8546372729        0.3611293673        2.0689687893
 H        -10.3373525901       -0.3317266315        1.4292469986
 C         -8.4834948201       -2.3538450568        1.7591468026
 H         -9.4859786855       -2.6802425903        2.0204503169
 H         -8.0101611828       -1.9743194649        2.6605133881
 H         -7.9219666301       -3.2187435402        1.4124457723
 C         -9.3379138155       -1.8671221564       -0.5265070526
 H         -9.4526180730       -1.1355300319       -1.3232137950
 H        -10.3335177104       -2.1515739644       -0.1971693119
 H         -8.8538915059       -2.7595009313       -0.9173255815
 H         -1.0084163544        0.4853173033       -3.2792287085
