77
       -105.32619310
 H          1.0430800534        4.4201628194        0.4888178038
 C          1.7488451925        3.6056598651        0.4205011754
 C          3.5925558605        1.5133997068        0.2573286412
 C          1.3112463440        2.3059531968        0.6614427959
 C          3.0631712111        3.8827957828        0.1075513510
 C          4.0179510651        2.8479991606        0.0311322950
 C          2.2352756159        1.2290171616        0.5610543407
 H          3.3746183909        4.9008723404       -0.0705564834
 C          4.5375126260        0.4660084618        0.1856216880
 C          6.4444028665       -1.6499464479        0.0685497742
 C          4.1428480968       -0.8749526869        0.4028781953
 C          5.8976689733        0.7427856598       -0.0984997301
 C          6.8192758845       -0.3232123140       -0.1485799233
 C          5.1067564628       -1.9058561776        0.3389430803
 H          7.8497441505       -0.0829980041       -0.3625774652
 H          4.7684686492       -2.9148453543        0.5121153892
 C          5.3765375366        3.1033853000       -0.2584949312
 H          5.6882798092        4.1229832816       -0.4289304585
 C          6.2925812637        2.0813147695       -0.3190419017
 H          7.3286757882        2.2939865242       -0.5360762055
 C          1.8649050291       -0.1234285542        0.7575571947
 H          0.8351860123       -0.3674369591        0.9686849952
 C          2.7840109824       -1.1381353078        0.6798870378
 H          2.4728465152       -2.1600525070        0.8378018304
 C          7.4958223019       -2.7412944614        0.0034886738
 C          8.5672446284       -2.4539748579        1.0668960744
 H          8.1220311040       -2.4263544303        2.0591152623
 H          9.0733104722       -1.5089969992        0.8904136755
 H          9.3150202038       -3.2416432174        1.0496015231
 C          8.1327569760       -2.7307329260       -1.3948071940
 H          7.3773432826       -2.8993018799       -2.1593799355
 H          8.8706696041       -3.5249125566       -1.4626345755
 H          8.6338635825       -1.7905475566       -1.6072344090
 C          6.9136166236       -4.1317737615        0.2626102531
 H          7.7095570614       -4.8689554036        0.2036351272
 H          6.1664522582       -4.3943042485       -0.4832566144
 H          6.4760995033       -4.1995409629        1.2562377931
 C         -0.1123338715        2.0762843007        1.0734832714
 H         -0.5567385631        3.0403866544        1.3446992825
 H         -0.1196382965        1.4576451874        1.9758869340
 H          0.4142362394        1.7186451152       -1.5534871741
 C         -0.5674393885        1.3536056814       -1.2911053292
 C         -3.1226428049        0.4315562912       -0.6383712885
 C         -1.3668344481        0.8133276441       -2.2750851674
 C         -0.9972746261        1.4508576215        0.0300671996
 C         -2.3007671579        0.9944985248        0.3743614907
 C         -2.6583488151        0.3356094785       -1.9752607759
 C         -4.4196936974       -0.0325627591       -0.3249411893
 C         -7.0323117560       -0.9793191490        0.3166850548
 C         -5.2455645709       -0.5937946412       -1.3300278752
 C         -4.9185459111        0.0597026397        0.9957950934
 C         -6.2158067024       -0.4167310095        1.2890925323
 C         -6.5324985258       -1.0545297285       -0.9838852062
 H         -6.5598140706       -0.3297535595        2.3072498584
 H         -7.1387935703       -1.4788213190       -1.7699336724
 C         -2.8314210348        1.0842133546        1.6845087373
 H         -2.2402241367        1.5225663939        2.4730823237
 C         -4.0924729765        0.6350126825        1.9845055269
 H         -4.4673443501        0.7207519317        2.9934975772
 C         -3.4984152960       -0.2212956351       -2.9648539777
 H         -3.1341573973       -0.2839827896       -3.9793366315
 C         -4.7562281827       -0.6749791983       -2.6529662736
 H         -5.3865793683       -1.0979337018       -3.4207758988
 C         -8.4233549588       -1.5067408846        0.6122826837
 C         -9.4373418817       -0.7335296220       -0.2448695736
 H         -9.3913936321        0.3304831212       -0.0231492687
 H        -10.4410266919       -1.0854547699       -0.0244021242
 H         -9.2607793991       -0.8713349253       -1.3080052529
 C         -8.8096338500       -1.3494252887        2.0838184850
 H         -9.8099148697       -1.7455663347        2.2356052714
 H         -8.8225828456       -0.3029567768        2.3803703925
 H         -8.1348121650       -1.9040295386        2.7322446404
 C         -8.4679790303       -3.0004218141        0.2530921637
 H         -9.4518587621       -3.3990668646        0.4830056116
 H         -7.7309128788       -3.5539492818        0.8309804230
 H         -8.2765871778       -3.1710223241       -0.8027065410
 H         -1.0084998003        0.7566554692       -3.2917990165
