77
       -105.32617667
 H         -0.2853896589        1.8188899224       -1.2741557767
 C          0.6761946144        1.3945382471       -1.0271787902
 C          3.1815456192        0.3218961614       -0.4117828337
 C          1.0451467892        1.2799387216        0.3106066330
 C          1.5116710447        0.9903834226       -2.0461900762
 C          2.7799019734        0.4432396862       -1.7667705187
 C          2.3214687201        0.7413194423        0.6379449925
 H          1.2001581159        1.0966058847       -3.0743008114
 C          4.4545863204       -0.2147205967       -0.1162287787
 C          7.0201147624       -1.3044191533        0.4871463710
 C          4.8903011791       -0.3400114150        1.2239557126
 C          5.3192956520       -0.6316050461       -1.1582085911
 C          6.5821543043       -1.1665537043       -0.8304292212
 C          6.1652463920       -0.8836755458        1.4976076228
 H          7.2199152060       -1.4755484951       -1.6448483455
 H          6.4609217675       -0.9638292023        2.5313882110
 C          3.6571800112        0.0256836433       -2.7920829007
 H          3.3402755047        0.1269293337       -3.8192722430
 C          4.8920444761       -0.4977896586       -2.4982634875
 H          5.5516571580       -0.8116899259       -3.2933425479
 C          2.7877845257        0.6111069900        1.9689406975
 H          2.1644300288        0.9322479396        2.7885483442
 C          4.0252443853        0.0908224803        2.2520597109
 H          4.3510302366        0.0075386480        3.2781553619
 C          8.3895996122       -1.8968809225        0.7593376158
 C          8.7023239651       -1.9883640873        2.2537422997
 H          7.9886460395       -2.6273018498        2.7693870520
 H          8.7127588071       -1.0045587874        2.7176445553
 H          9.6887700045       -2.4239223811        2.3869213765
 C          9.4511815818       -1.0097058277        0.0906938822
 H         10.4397304182       -1.4103088217        0.2959521450
 H          9.4040841261        0.0035341027        0.4837929908
 H          9.3247779950       -0.9665308158       -0.9875662190
 C          8.4412607040       -3.3121663162        0.1627138472
 H          7.6694297088       -3.9401110051        0.6026734082
 H          9.4078737494       -3.7597610694        0.3751423025
 H          8.3064002367       -3.3050142965       -0.9153189765
 C          0.1265273773        1.7603168453        1.4009531470
 H          0.6032867735        2.6262016943        1.8733322729
 H          0.0409663052        0.9860805365        2.1694875320
 H         -0.8272369035        4.2457906916        1.1373729592
 C         -1.5812745751        3.5081948513        0.9058997191
 C         -3.5534992640        1.6182350510        0.3225585643
 C         -2.8535548233        3.9324469751        0.5753690413
 C         -1.2504962235        2.1590873223        0.9601063891
 C         -2.2402481294        1.1845129577        0.6433275272
 C         -3.8701250538        3.0007945116        0.2902126891
 C         -4.5632714673        0.6720316786        0.0386871063
 C         -6.6077588239       -1.2387869733       -0.5066461635
 C         -5.8824603655        1.0937383312       -0.2640195280
 C         -4.2751601425       -0.7119505752        0.0583652676
 C         -5.3047316719       -1.6369896775       -0.2157708681
 C         -6.8759728985        0.1256453394       -0.5287860504
 H         -5.0535995747       -2.6866616420       -0.1914820237
 H         -7.8693045487        0.4810002067       -0.7515095066
 C         -1.9758324253       -0.2056956340        0.6380553133
 H         -0.9798682934       -0.5591626843        0.8556911459
 C         -2.9567468566       -1.1214848494        0.3547498834
 H         -2.7269521454       -2.1765857765        0.3615684554
 C         -5.1887767163        3.4023044182       -0.0217728380
 H         -5.4182258694        4.4571686205       -0.0437643434
 C         -6.1681517955        2.4764050259       -0.2880563405
 H         -7.1719794361        2.8003706358       -0.5186988046
 C         -7.6665449634       -2.2899807701       -0.7825715682
 C         -9.0366543456       -1.6784871230       -1.0794507024
 H         -9.0071757664       -1.0503123737       -1.9669796980
 H         -9.4038249080       -1.0996737117       -0.2349069036
 H         -9.7510596949       -2.4757161115       -1.2656014393
 C         -7.7932862210       -3.1951466149        0.4525710965
 H         -8.5664263568       -3.9382644266        0.2798763083
 H         -8.0707788734       -2.6105038835        1.3269291434
 H         -6.8669678866       -3.7201913539        0.6692179698
 C         -7.2296623733       -3.1223483211       -1.9980565782
 H         -6.2951285502       -3.6464760447       -1.8174176884
 H         -7.1054144725       -2.4858054652       -2.8714702511
 H         -7.9910891990       -3.8638496545       -2.2220591816
 H         -3.0811685640        4.9872396421        0.5456621780
