77
       -105.32621239
 H          0.9507301202        4.3070159255        0.2373642403
 C          1.6875416424        3.5178856371        0.2127833211
 C          3.6149326528        1.4970211816        0.1629459937
 C          1.3063028330        2.2228569069        0.5448170707
 C          2.9878745007        3.8265847091       -0.1359126333
 C          3.9824244323        2.8299723805       -0.1547156374
 C          2.2732595734        1.1776150169        0.5002227637
 H          3.2543853626        4.8426259612       -0.3847250495
 C          4.6021188846        0.4866884705        0.1478250405
 C          6.5990219680       -1.5483198392        0.1411687670
 C          4.2636702610       -0.8512876277        0.4546090283
 C          5.9483969772        0.7982422689       -0.1686919100
 C          6.9173377943       -0.2291442360       -0.1630297699
 C          5.2708652845       -1.8394085088        0.4450649485
 H          7.9321872241        0.0435302010       -0.4045317346
 H          4.9815484224       -2.8509080203        0.6872032324
 C          5.3278718843        3.1198139171       -0.4758927272
 H          5.5959440480        4.1377457053       -0.7163560811
 C          6.2846467658        2.1339699022       -0.4796659109
 H          7.3091915359        2.3739420913       -0.7216182960
 C          1.9590526377       -0.1729207420        0.7831366564
 H          0.9414591851       -0.4454476150        1.0164815648
 C          2.9186009629       -1.1526969157        0.7606787977
 H          2.6504812987       -2.1745334560        0.9843987606
 C          7.6300579525       -2.6613927389        0.1542664398
 C          9.0307890227       -2.1676760487       -0.2110649207
 H          9.3887045949       -1.4273254188        0.5008410560
 H          9.0547558724       -1.7497535994       -1.2150569144
 H          9.7223620659       -3.0054048539       -0.1879104194
 C          7.2103558725       -3.7342140742       -0.8625722704
 H          6.2538954835       -4.1831986531       -0.6091056684
 H          7.9551591388       -4.5245082443       -0.8839698366
 H          7.1375870526       -3.3064409550       -1.8601752572
 C          7.6786630501       -3.2687360593        1.5648644882
 H          8.4290669742       -4.0534190526        1.5961360706
 H          6.7259742115       -3.7046560229        1.8530751813
 H          7.9465556534       -2.5105733759        2.2974815612
 C         -0.1025257932        1.9680061705        0.9919908603
 H         -0.5582022297        2.9272269788        1.2611347462
 H         -0.0817963893        1.3597787714        1.9013140310
 H          0.4265296619        1.4423888953       -1.6117144291
 C         -0.5682902484        1.1275939667       -1.3342907014
 C         -3.1565043463        0.3317568968       -0.6455002810
 C         -1.3833202740        0.5622940223       -2.2914625596
 C         -0.9993872775        1.3136416422       -0.0235050154
 C         -2.3170871635        0.9162678710        0.3399896053
 C         -2.6928909577        0.1501585629       -1.9737041845
 C         -4.4701601667       -0.0684810511       -0.3137293540
 C         -7.1195536333       -0.8783436461        0.3633377525
 C         -5.3150123176       -0.6471247126       -1.2928385701
 C         -4.9667127803        0.1064310126        0.9994498181
 C         -6.2822762095       -0.3037918714        1.3108171241
 C         -6.6201610181       -1.0384896502       -0.9296360021
 H         -6.6238467744       -0.1551205912        2.3226350482
 H         -7.2411722957       -1.4771257228       -1.6960789777
 C         -2.8437063006        1.0850550938        1.6438536932
 H         -2.2359185834        1.5356676266        2.4126148608
 C         -4.1199672091        0.6953279155        1.9623319589
 H         -4.4912620584        0.8402157525        2.9658722768
 C         -3.5508963748       -0.4253780380       -2.9369688495
 H         -3.1866636644       -0.5544685020       -3.9451701035
 C         -4.8260585744       -0.8139050083       -2.6078732210
 H         -5.4703914444       -1.2509033834       -3.3559666505
 C         -8.5329449061       -1.3300135562        0.6779190512
 C         -8.9152410742       -1.0850165843        2.1384912703
 H         -9.9325932341       -1.4284372357        2.3045361943
 H         -8.8821200263       -0.0259547985        2.3844987954
 H         -8.2674484094       -1.6373061903        2.8157992903
 C         -8.6433422902       -2.8356853877        0.3904995738
 H         -8.4594897397       -3.0650127863       -0.6554587935
 H         -9.6439639206       -3.1790076490        0.6368672454
 H         -7.9316969160       -3.3929307150        0.9959995373
 C         -9.5093399321       -0.5543877038       -0.2198615585
 H         -9.3370426985       -0.7515971455       -1.2743206510
 H         -9.4157376183        0.5160219945       -0.0498480355
 H        -10.5283543987       -0.8495426471        0.0132370581
 H         -1.0232631150        0.4361497375       -3.3013127875
