77
       -105.32614400
 H          0.3018408687        2.9075234344       -0.6682024362
 C          1.2300870266        2.3679735784       -0.5502891271
 C          3.6329271062        0.9772367444       -0.2722756695
 C          1.2357381591        0.9878941485       -0.7603683759
 C          2.3731497068        3.0581100931       -0.2180513834
 C          3.6050649428        2.3835286081       -0.0883593577
 C          2.4449857104        0.2623913090       -0.5905543108
 H          2.3400309331        4.1269095904       -0.0711469673
 C          4.8615340095        0.2920436614       -0.1404924656
 C          7.3439804462       -1.0940455792        0.0919258977
 C          4.9255949316       -1.1118775166       -0.3059391994
 C          6.0530730994        0.9996033461        0.1541006091
 C          7.2662212434        0.2892566196        0.2606285378
 C          6.1666973427       -1.7759028571       -0.1850571575
 H          8.1584616563        0.8557688957        0.4805791448
 H          6.1738934779       -2.8457531682       -0.3187535060
 C          4.8007269273        3.0703940989        0.2160419043
 H          4.7629721587        4.1404486471        0.3550184554
 C          5.9937570578        2.4001661362        0.3294454423
 H          6.9010078278        2.9403949954        0.5547480362
 C          2.5368381751       -1.1457468129       -0.7205434851
 H          1.6493152816       -1.7256385369       -0.9210080251
 C          3.7299988725       -1.8076807650       -0.5847218210
 H          3.7645231435       -2.8813728101       -0.6944113771
 C          8.6889799291       -1.7841105647        0.2139877247
 C          9.2587126956       -1.5145131921        1.6155372295
 H          9.4305264037       -0.4559258947        1.7891520282
 H         10.2090962915       -2.0289480467        1.7249953967
 H          8.5794296123       -1.8838421864        2.3808753677
 C          9.6336535680       -1.2064374023       -0.8518121603
 H          9.8039618198       -0.1426273683       -0.7113742293
 H          9.2247053257       -1.3612662148       -1.8479408227
 H         10.5948006642       -1.7092773019       -0.7947464067
 C          8.5920885072       -3.2968115549        0.0108501560
 H          9.5812361435       -3.7352087511        0.1103521934
 H          8.2233131150       -3.5404512939       -0.9830900695
 H          7.9515124241       -3.7570762227        0.7600030123
 C         -0.0524704231        0.3612331280       -1.2084180825
 H          0.1103625841       -0.6406216322       -1.6135999889
 H         -0.4373147659        0.9755818526       -2.0280468325
 H          0.3120192531        0.4237678991        1.4602048443
 C         -0.7335050129        0.3307791058        1.2064296253
 C         -3.4410611905        0.0773123709        0.5692717878
 C         -1.6665483313        0.2718417906        2.2187633492
 C         -1.1035515908        0.2769772271       -0.1353782979
 C         -2.4772929437        0.1236250230       -0.4737106012
 C         -3.0406263804        0.1576787630        1.9276651363
 C         -4.8145573379       -0.0497883006        0.2633441873
 C         -7.5874981999       -0.2853663168       -0.3618593250
 C         -5.7825169117       -0.0819834804        1.2974711895
 C         -5.2479189340       -0.1463223487       -1.0799235673
 C         -6.6267120931       -0.2635813278       -1.3644488880
 C         -7.1465209113       -0.1962144767        0.9589012383
 H         -6.9169786647       -0.3355508601       -2.4003663098
 H         -7.8616132471       -0.2135537437        1.7674962859
 C         -2.9399959824        0.0077779407       -1.8073782239
 H         -2.2335191564        0.0137386508       -2.6225339936
 C         -4.2736097663       -0.1242057842       -2.1002457356
 H         -4.5918282759       -0.2109298978       -3.1284437885
 C         -4.0193516594        0.1151502039        2.9453029714
 H         -3.7000345076        0.1746401044        3.9750049241
 C         -5.3533785824        0.0025619945        2.6409450795
 H         -6.0899104029       -0.0243534367        3.4299729894
 C         -9.0732159030       -0.3980695313       -0.6458959454
 C         -9.6173098105       -1.6553367048        0.0499572387
 H        -10.6754799657       -1.7622193324       -0.1707347971
 H         -9.5050049771       -1.6045803964        1.1293572734
 H         -9.1016214863       -2.5434014028       -0.3090130785
 C         -9.3783814795       -0.4998748173       -2.1412087056
 H        -10.4527760290       -0.5788770147       -2.2825960668
 H         -8.9233355829       -1.3857023785       -2.5788776343
 H         -9.0412791287        0.3854062752       -2.6759324279
 C         -9.7734574830        0.8511443996       -0.0881674308
 H         -9.3761193352        1.7507799757       -0.5532451194
 H         -9.6529042031        0.9382976143        0.9881235921
 H        -10.8369004558        0.7967076029       -0.3025911861
 H         -1.3496797802        0.3174818175        3.2496979718
