77
       -105.32608817
 H          0.4501911317        3.3976251180        0.0408180350
 C          1.3348547735        2.7780978243        0.0485932757
 C          3.6331049508        1.1953932324        0.0884612571
 C          1.2414365853        1.4757802744        0.5319032506
 C          2.5280933514        3.3054003218       -0.3990599553
 C          3.7070697637        2.5355826571       -0.3702375879
 C          2.3969085554        0.6447971324        0.5236979852
 H          2.5707130308        4.3224834235       -0.7580300766
 C          4.8080333627        0.4110690721        0.1130163740
 C          7.1860597268       -1.1617880921        0.1953447813
 C          4.7654551317       -0.9329897531        0.5504363730
 C          6.0502899579        0.9587781502       -0.2947897250
 C          7.2124164995        0.1583473999       -0.2413600848
 C          5.9557547601       -1.6904473310        0.5799431396
 H          8.1405397513        0.6090799067       -0.5544929409
 H          5.8894116781       -2.7135580168        0.9181060814
 C          4.9521642316        3.0608680359       -0.7832942037
 H          4.9940236320        4.0821932111       -1.1311174038
 C          6.0930657676        2.2975023291       -0.7415500991
 H          7.0382390406        2.7168486567       -1.0523459824
 C          2.3802182729       -0.7120904085        0.9276488825
 H          1.4496580531       -1.1713646533        1.2230295845
 C          3.5210940447       -1.4735845876        0.9409259062
 H          3.4758359369       -2.5047579715        1.2582641991
 C          8.4287994018       -2.0294360488        0.2636233892
 C          8.2296422836       -3.2476685006       -0.6515141412
 H          8.0584759455       -2.9298720828       -1.6777920027
 H          7.3897164125       -3.8603363075       -0.3355434011
 H          9.1220294054       -3.8665208472       -0.6303875983
 C          8.6262612951       -2.4927492573        1.7152116358
 H          7.7938858823       -3.0962807274        2.0666721210
 H          8.7351121258       -1.6365350039        2.3773393173
 H          9.5280363190       -3.0942458269        1.7845595131
 C          9.6885020657       -1.2860840348       -0.1839996456
 H          9.8871311645       -0.4251684187        0.4504961376
 H          9.6134430718       -0.9657344626       -1.2207855337
 H         10.5429587136       -1.9530023690       -0.1082176930
 C         -0.0812749412        1.0310781637        1.0848342449
 H         -0.5228557963        1.8894699800        1.5999436116
 H          0.0553921993        0.2466788470        1.8345009666
 H          0.4016473288        0.3399202764       -1.4870000968
 C         -0.6434308206        0.2392899320       -1.2347825963
 C         -3.3542544684       -0.0235966192       -0.6120423338
 C         -1.5282090577       -0.1866018534       -2.2052991229
 C         -1.0648234394        0.5469735575        0.0534937765
 C         -2.4420195641        0.3993911332        0.3912985045
 C         -2.9005043009       -0.3181137883       -1.9231972551
 C         -4.7293104876       -0.1528887916       -0.3140191223
 C         -7.5093394183       -0.3860254440        0.2798981533
 C         -5.6490667756       -0.5623245491       -1.3121502030
 C         -5.2122469762        0.1271977429        0.9849606400
 C         -6.5919171664        0.0043724750        1.2534985701
 C         -7.0200412489       -0.6685927435       -0.9906202560
 H         -6.9284562566        0.2269759778        2.2548218651
 H         -7.6913591122       -0.9800998724       -1.7748365553
 C         -2.9519965075        0.6542381965        1.6867517359
 H         -2.2826822895        0.9556316971        2.4770533805
 C         -4.2870728980        0.5228816895        1.9747320183
 H         -4.6440520268        0.7268255558        2.9732044137
 C         -3.8309903618       -0.7337205029       -2.9027202216
 H         -3.4724409714       -0.9579169958       -3.8962192744
 C         -5.1668328410       -0.8504452293       -2.6077963039
 H         -5.8649791168       -1.1654269880       -3.3688308338
 C         -8.9807326838       -0.4842038700        0.6360610133
 C         -9.1477728731       -1.5032951263        1.7738998544
 H        -10.2013436206       -1.6044947712        2.0179468577
 H         -8.6240581279       -1.1966107888        2.6750800950
 H         -8.7719395909       -2.4781979204        1.4710422066
 C         -9.8422430743       -0.9307176703       -0.5462903848
 H        -10.8814794811       -0.9802267753       -0.2330485008
 H         -9.5563706895       -1.9211356181       -0.8935047423
 H         -9.7815152962       -0.2234840686       -1.3705342442
 C         -9.4656737540        0.8987361871        1.0984633062
 H         -8.9361024170        1.2403761642        1.9836327821
 H        -10.5237166818        0.8501759825        1.3393906412
 H         -9.3281204792        1.6346656387        0.3091555786
 H         -1.1703976374       -0.4169844032       -3.1974529769
