77
       -105.32608631
 H          0.4536718292        3.3609947271       -0.4251728783
 C          1.3381816276        2.7453024143       -0.3539840420
 C          3.6360203065        1.1698238530       -0.1919307106
 C          1.2488777200        1.3963557769       -0.6869436323
 C          2.5271457708        3.3207424422        0.0426981044
 C          3.7059189332        2.5532826564        0.1132650341
 C          2.4039548127        0.5725816087       -0.5741434602
 H          2.5666966914        4.3719767710        0.2845511148
 C          4.8108513684        0.3886425216       -0.1162234250
 C          7.1884347113       -1.1822487069        0.0059518427
 C          4.7723197198       -0.9960310313       -0.4005331649
 C          6.0489542765        0.9795811415        0.2406031662
 C          7.2109145010        0.1787354233        0.2912070782
 C          5.9625196145       -1.7511308320       -0.3324305184
 H          8.1357648635        0.6623123392        0.5621543609
 H          5.8995849775       -2.8053726685       -0.5562473471
 C          4.9469016475        3.1226381431        0.4773430120
 H          4.9856584444        4.1767194996        0.7080555439
 C          6.0877093635        2.3601168099        0.5342201753
 H          7.0296815344        2.8123462782        0.8060777055
 C          2.3909289533       -0.8211664032       -0.8229731726
 H          1.4632238738       -1.3117885570       -1.0734921946
 C          3.5318051229       -1.5782027062       -0.7400452456
 H          3.4894286931       -2.6385536280       -0.9398909980
 C          8.4308895350       -2.0517702627        0.0515287291
 C          8.2144113511       -3.1668468610        1.0863252687
 H          8.0224715455       -2.7426372099        2.0695262277
 H          9.1075482597       -3.7818178009        1.1486651187
 H          7.3817434633       -3.8122736626        0.8205510989
 C          9.6836193147       -1.2648671257        0.4403002930
 H         10.5376783620       -1.9364339022        0.4540320878
 H          9.5889775242       -0.8339738619        1.4345945166
 H          9.8969247707       -0.4778818883       -0.2796435027
 C          8.6525777070       -2.6653708385       -1.3395895463
 H          7.8232569004       -3.2992378049       -1.6414016546
 H          9.5522242043       -3.2739289527       -1.3284310270
 H          8.7782439165       -1.8836125218       -2.0855465306
 C         -0.0691503333        0.8905588331       -1.1966068044
 H          0.0726423265        0.0223144921       -1.8461020130
 H         -0.5036925045        1.6821023466       -1.8146129152
 H          0.3857311633        0.5160278133        1.4454391508
 C         -0.6568453191        0.3864621120        1.1961265551
 C         -3.3615304950        0.0525397244        0.5809175649
 C         -1.5529626988        0.0837166380        2.2018577548
 C         -1.0638568790        0.5347772618       -0.1245556898
 C         -2.4374619710        0.3471945489       -0.4568204504
 C         -2.9226328078       -0.0789012075        1.9232492670
 C         -4.7337249074       -0.1097922147        0.2860213911
 C         -7.5082883659       -0.4055455196       -0.3048161475
 C         -5.6656727584       -0.3894461700        1.3170978379
 C         -5.2015237234        0.0075138965       -1.0430319956
 C         -6.5785895374       -0.1447169019       -1.3095921178
 C         -7.0338475286       -0.5290928739        0.9963722151
 H         -6.9032427403       -0.0497307482       -2.3347819898
 H         -7.7150525712       -0.7369915748        1.8059571555
 C         -2.9323206622        0.4396954430       -1.7796060966
 H         -2.2533984472        0.6396387997       -2.5935411698
 C         -4.2644179520        0.2750271028       -2.0640453268
 H         -4.6099220577        0.3534663893       -3.0840620288
 C         -3.8648979072       -0.3685846144        2.9362686837
 H         -3.5176153325       -0.4699752909        3.9536090569
 C         -5.1981177660       -0.5167688993        2.6435390086
 H         -5.9054267613       -0.7333496477        3.4300447287
 C         -8.9760713725       -0.5432592380       -0.6626575077
 C         -9.1354824810       -1.7144574000       -1.6446439215
 H         -8.7796351950       -2.6393629036       -1.1959677384
 H         -8.5888969682       -1.5472144925       -2.5686751371
 H        -10.1853470430       -1.8378570205       -1.8943060655
 C         -9.4454845384        0.7612782903       -1.3252833054
 H        -10.5036907861        0.6887499327       -1.5592790729
 H         -8.9121171515        0.9632373945       -2.2500828738
 H         -9.3011713880        1.6041594205       -0.6528193667
 C         -9.8555171480       -0.8103008684        0.5599249273
 H         -9.5859505861       -1.7450333472        1.0464671359
 H        -10.8918851549       -0.8923630998        0.2439984756
 H         -9.7944955166        0.0052586848        1.2772013029
 H         -1.2062689479       -0.0238148145        3.2185692553
