77
       -105.32597609
 H         -0.1355254177        1.7061398414       -0.2461647212
 C          0.8897574046        1.3787770202       -0.1572099894
 C          3.5433442492        0.5502950709        0.1057621146
 C          1.1551680122        0.0182699930       -0.0109387773
 C          1.8988208765        2.3156423760       -0.1915007019
 C          3.2482501393        1.9259313982       -0.0749001466
 C          2.5009859137       -0.4150624364        0.1487680789
 H          1.6620850271        3.3623097024       -0.3085031416
 C          4.8908863872        0.1496978246        0.2479880413
 C          7.6095284977       -0.6666941797        0.5313136572
 C          5.2212708964       -1.2113723471        0.4476886466
 C          5.9358006507        1.1051898333        0.1965075934
 C          7.2704250892        0.6728315470        0.3368927864
 C          6.5748296079       -1.5912406650        0.5860822910
 H          8.0453808148        1.4230236700        0.2905585461
 H          6.7851467463       -2.6377520535        0.7381454943
 C          4.3029150124        2.8643941338       -0.1204681204
 H          4.0629070627        3.9079916030       -0.2585872585
 C          5.6107707926        2.4671714156        0.0077273064
 H          6.4061863614        3.1962331816       -0.0314200556
 C          2.8630284558       -1.7680664561        0.3612266129
 H          2.0977931907       -2.5259622561        0.4222095287
 C          4.1715410811       -2.1521721987        0.5075032683
 H          4.4109351476       -3.1923367345        0.6709801741
 C          9.0693703310       -1.0534604647        0.6720205160
 C          9.6656524014       -0.3058395824        1.8748226049
 H          9.1263037434       -0.5570857732        2.7855694460
 H          9.6331393383        0.7718921524        1.7416718827
 H         10.7048186947       -0.5952287839        2.0023278965
 C          9.8096351622       -0.6487531323       -0.6125297437
 H         10.8540146592       -0.9371022697       -0.5351331321
 H          9.7701425423        0.4233923060       -0.7839745483
 H          9.3786341806       -1.1517666216       -1.4755054215
 C          9.2599254518       -2.5552196647        0.8905794154
 H         10.3205463342       -2.7713438504        0.9851275463
 H          8.8817036005       -3.1297805711        0.0478960393
 H          8.7741122880       -2.8870487114        1.8055745192
 C          0.0122029337       -0.9578057655        0.0204941630
 H         -0.2188534496       -1.1712789503        1.0667872946
 H          0.3289939648       -1.9028489924       -0.4317583816
 H         -0.0478346327       -0.3330301515       -2.5261988832
 C         -1.0365422251       -0.2476929824       -2.0995912562
 C         -3.5942842866       -0.0636280709       -1.0009647243
 C         -2.0932303834        0.0971360248       -2.9091912048
 C         -1.2026777166       -0.5075835034       -0.7370451090
 C         -2.4962292578       -0.3997566068       -0.1602132099
 C         -3.3988798966        0.1879696166       -2.3832243526
 C         -4.9008451923        0.0161640699       -0.4684198908
 C         -7.5406191470        0.1418007312        0.6079016891
 C         -6.0015234413        0.3329310231       -1.3023719216
 C         -5.1361534889       -0.2262316370        0.9057439347
 C         -6.4517114212       -0.1568003463        1.4156645938
 C         -7.2950003530        0.3860563649       -0.7441694355
 H         -6.5884296147       -0.3483944584        2.4678451886
 H         -8.1141733319        0.6248411073       -1.4055131073
 C         -2.7629816646       -0.6130869366        1.2153156427
 H         -1.9547780552       -0.8416081044        1.8924909317
 C         -4.0316762057       -0.5318749030        1.7287005533
 H         -4.1973380705       -0.7059079392        2.7814477652
 C         -4.5060748788        0.5138036022       -3.1967456310
 H         -4.3394994649        0.7060767804       -4.2460442616
 C         -5.7738016865        0.5817436114       -2.6742500753
 H         -6.6114478620        0.8255153383       -3.3103252954
 C         -8.9630601123        0.2062105705        1.1299232953
 C         -9.0494102093       -0.0699453438        2.6316643516
 H        -10.0869705595       -0.0070354536        2.9479440050
 H         -8.4863705367        0.6651817840        3.2026039092
 H         -8.6927949262       -1.0690260793        2.8723552997
 C         -9.8022346662       -0.8472189871        0.3892654235
 H        -10.8201351164       -0.8313469688        0.7681131700
 H         -9.3925698679       -1.8422376541        0.5494037144
 H         -9.8399939997       -0.6587664697       -0.6801039002
 C         -9.5299041090        1.6083157530        0.8575888818
 H         -9.5718304344        1.8323257607       -0.2046219613
 H         -8.9221563889        2.3667551435        1.3463931662
 H        -10.5398789696        1.6731839594        1.2520761644
 H         -1.9347067070        0.2862518151       -3.9599555214
