77
       -105.32599881
 H         -0.1694682070        1.6481594311       -0.4182141921
 C          0.8549381488        1.3309092433       -0.2914024064
 C          3.5093595422        0.5352824772        0.0596927786
 C          1.1423330052       -0.0285254967       -0.2371495849
 C          1.8451794699        2.2870255689       -0.1905428150
 C          3.1925961527        1.9151202766       -0.0272451841
 C          2.4890409029       -0.4489615533       -0.0335156620
 H          1.5904642657        3.3349266037       -0.2396933028
 C          4.8559863768        0.1487191692        0.2430973342
 C          7.5759449341       -0.6324371638        0.6006708396
 C          5.2030099627       -1.2177203040        0.3501484024
 C          5.8824789874        1.1231614283        0.3243983857
 C          7.2209261726        0.7081346163        0.4985166243
 C          6.5551430994       -1.5782842939        0.5293881030
 H          7.9759916613        1.4760600489        0.5518466336
 H          6.7858961168       -2.6297054972        0.6113218040
 C          4.2287517641        2.8724199241        0.0611439183
 H          3.9740128673        3.9195458715       -0.0058817096
 C          5.5364276976        2.4889266601        0.2280703012
 H          6.3164157073        3.2329154675        0.2902943876
 C          2.8658222532       -1.8077936265        0.0898439286
 H          2.1136830065       -2.5797297946        0.0458523026
 C          4.1729461126       -2.1799054417        0.2771254818
 H          4.4261709701       -3.2255618430        0.3690857384
 C          9.0092968959       -1.0923106499        0.7889872426
 C          9.3871895657       -2.0243799307       -0.3725788288
 H          8.7699238827       -2.9182029023       -0.3954908678
 H         10.4220175363       -2.3364582875       -0.2650029163
 H          9.2830119477       -1.5086929910       -1.3247794629
 C          9.1083585374       -1.8521942553        2.1212214260
 H          8.4758683973       -2.7356319170        2.1325152334
 H          8.8176939104       -1.2093337185        2.9492674797
 H         10.1340328454       -2.1720352344        2.2808556767
 C         10.0002600550        0.0723967508        0.8185172635
 H          9.9805854827        0.6324043440       -0.1138923625
 H         11.0065079490       -0.3172268462        0.9461084115
 H          9.8004185774        0.7431065961        1.6511631846
 C          0.0369325393       -1.0404325386       -0.3665880573
 H         -0.1711500410       -1.4523628077        0.6236791271
 H          0.3937330798       -1.8704882069       -0.9850360650
 H         -0.1664252412       -0.2728938164       -2.8693938070
 C         -1.1237685283       -0.1919340876       -2.3757325350
 C         -3.6019524693       -0.0175279522       -1.1060643724
 C         -2.2230877269        0.2107213093       -3.0978538168
 C         -1.2091991478       -0.5197692651       -1.0208403405
 C         -2.4580109605       -0.4052299198       -0.3541016091
 C         -3.4915584629        0.2917077506       -2.4860520040
 C         -4.8694633943        0.0565713338       -0.4859678814
 C         -7.4333618086        0.1538914322        0.7615628638
 C         -6.0174072892        0.4184353189       -1.2332554168
 C         -5.0174580402       -0.2373014198        0.8903402303
 C         -6.2972313743       -0.1807735737        1.4858892572
 C         -7.2719698815        0.4572271155       -0.5912649933
 H         -6.3680084973       -0.4125827741        2.5364896398
 H         -8.1290217846        0.7324313016       -1.1872225875
 C         -2.6339444680       -0.6590791079        1.0290699078
 H         -1.7830924704       -0.9126217310        1.6421091161
 C         -3.8646802224       -0.5801700839        1.6282594490
 H         -3.9627216352       -0.7860780531        2.6837335128
 C         -4.6439849389        0.6659867865       -3.2111209940
 H         -4.5425695099        0.9030557401       -4.2595839341
 C         -5.8747709409        0.7235873763       -2.6052582771
 H         -6.7483747201        1.0022937733       -3.1752079018
 C         -8.8200720334        0.1979092601        1.3740258217
 C         -9.3901650069        1.6157887320        1.2124201482
 H         -9.4941731723        1.8968716577        0.1682079420
 H         -8.7473820493        2.3433791352        1.7032521556
 H        -10.3737692856        1.6645410860        1.6706911001
 C         -8.8154990548       -0.1583065682        2.8613163601
 H         -9.8319756335       -0.1148819706        3.2426347210
 H         -8.2182727960        0.5462056225        3.4360458964
 H         -8.4458939705       -1.1681233616        3.0257048897
 C         -9.7128810534       -0.8096610400        0.6324904743
 H        -10.7056041493       -0.8073052724        1.0733702857
 H         -9.3037567308       -1.8143148556        0.7151433019
 H         -9.8144306821       -0.5654106734       -0.4213068607
 H         -2.1279122703        0.4498739073       -4.1460705176
