77
       -105.32601333
 H          1.0185635051        4.4049689622        0.4856269128
 C          1.7314348382        3.5966553491        0.4175957654
 C          3.5979304611        1.5247254371        0.2553938234
 C          1.3069577329        2.2948919974        0.6572969592
 C          3.0452807054        3.8872666983        0.1053260314
 C          4.0092753343        2.8636457150        0.0297751825
 C          2.2433751263        1.2257251963        0.5573952030
 H          3.3456081429        4.9088583575       -0.0720112416
 C          4.5542413661        0.4874408077        0.1843503511
 C          6.4890446390       -1.6033689093        0.0675616972
 C          4.1720451377       -0.8563272835        0.4010091614
 C          5.9128921722        0.7769975317       -0.0984769611
 C          6.8503481376       -0.2780016315       -0.1491951050
 C          5.1489840277       -1.8723862291        0.3375345153
 H          7.8756456117       -0.0219510878       -0.3632050385
 H          4.8262999097       -2.8880415619        0.5101257307
 C          5.3665373308        3.1318926215       -0.2587684249
 H          5.6682855110        4.1545518633       -0.4290313787
 C          6.2928918042        2.1190731671       -0.3184639126
 H          7.3269294438        2.3424349695       -0.5345677117
 C          1.8857682397       -0.1294429760        0.7525256281
 H          0.8582423738       -0.3841083903        0.9613964500
 C          2.8154277463       -1.1349010587        0.6762410969
 H          2.5145159926       -2.1600245725        0.8333079686
 C          7.4862895906       -2.7460242396        0.0225688583
 C          7.4923901979       -3.4459373030        1.3904548504
 H          6.5231290471       -3.8727770106        1.6334433274
 H          7.7673229813       -2.7454771728        2.1759999674
 H          8.2204135740       -4.2519908581        1.3821868912
 C          8.9071604054       -2.2724750261       -0.2874179110
 H          8.9618898196       -1.7930793046       -1.2622904604
 H          9.5737143595       -3.1303561816       -0.3059650995
 H          9.2729169376       -1.5894767163        0.4759934261
 C          7.0527605426       -3.7363817041       -1.0693520512
 H          7.0128717819       -3.2427319660       -2.0379543507
 H          6.0778209754       -4.1691819314       -0.8623139602
 H          7.7726459145       -4.5475072921       -1.1294369211
 C         -0.1148921246        2.0499175684        1.0670537202
 H         -0.5658967025        3.0078066808        1.3488311089
 H         -0.1184679797        1.4208963473        1.9623080535
 H          0.4247721078        1.6908640581       -1.5590039994
 C         -0.5595186329        1.3302874848       -1.3002658847
 C         -3.1217588302        0.4167864881       -0.6630467962
 C         -1.3573056136        0.7919939089       -2.2897590664
 C         -0.9949150013        1.4295163673        0.0162802988
 C         -2.3039612481        0.9771683447        0.3542925714
 C         -2.6502432750        0.3195211878       -1.9972077637
 C         -4.4219291489       -0.0436844966       -0.3568717956
 C         -7.0408047487       -0.9873667094        0.2640011357
 C         -5.2455855189       -0.6036458203       -1.3657213219
 C         -4.9256979408        0.0508018284        0.9608874778
 C         -6.2246371633       -0.4229134305        1.2423315442
 C         -6.5375844468       -1.0642103932       -1.0299825791
 H         -6.5795980632       -0.3362465359        2.2581816935
 H         -7.1356465033       -1.4862685084       -1.8217226216
 C         -2.8396335342        1.0693608825        1.6611763141
 H         -2.2508297421        1.5058852091        2.4524802770
 C         -4.1037852440        0.6239879103        1.9549741901
 H         -4.4835743261        0.7109269165        2.9620273330
 C         -3.4883804568       -0.2353368432       -2.9908822557
 H         -3.1195135817       -0.2990124485       -4.0036692904
 C         -4.7489040597       -0.6855680686       -2.6851165682
 H         -5.3764056147       -1.1069105287       -3.4561390001
 C         -8.4223065541       -1.4882820982        0.6406900474
 C         -9.2387369001       -0.3123689906        1.1985922330
 H         -9.3234217531        0.4790410411        0.4570778549
 H         -8.7909454222        0.1038949713        2.0967941606
 H        -10.2390322533       -0.6526754273        1.4504094840
 C         -8.2732258915       -2.5771774513        1.7148929873
 H         -7.6682394607       -3.4008200288        1.3418054577
 H         -9.2534819223       -2.9649854400        1.9765332098
 H         -7.8124511489       -2.1939936572        2.6212261605
 C         -9.1760684335       -2.0821599832       -0.5504374365
 H         -8.6491487707       -2.9382877419       -0.9661110178
 H         -9.3363742631       -1.3392428535       -1.3285762969
 H        -10.1522567481       -2.4266565916       -0.2203338550
 H         -0.9927448425        0.7340111564       -3.3042251988
