77
       -105.32598510
 H         -0.2530394119        2.1467372455       -1.1053003871
 C          0.6887991454        1.7056818799       -0.8150643305
 C          3.1430932348        0.5952556747       -0.0750955331
 C          1.0687554075        0.4879071632       -1.3743993214
 C          1.4884224633        2.3679216980        0.0908996613
 C          2.7289945798        1.8296603605        0.4877750721
 C          2.3223121030       -0.0828087844       -1.0157215551
 H          1.1699682057        3.3135780756        0.5027481995
 C          4.3894617603        0.0490933598        0.3047595157
 C          6.8959043114       -1.0679421325        1.0817432783
 C          4.8391805508       -1.1733191342       -0.2477269557
 C          5.2130355242        0.7194375737        1.2426272020
 C          6.4465508652        0.1431059749        1.6093595897
 C          6.0845817907       -1.7065911601        0.1529595820
 H          7.0516924085        0.6747578607        2.3281326054
 H          6.3922545941       -2.6401804917       -0.2901031819
 C          3.5673446747        2.4873717587        1.4149339223
 H          3.2422319084        3.4290743171        1.8312033112
 C          4.7747825178        1.9483693651        1.7847008627
 H          5.4042726862        2.4630168762        2.4950763988
 C          2.8050671185       -1.2972024897       -1.5619930502
 H          2.2159555230       -1.8269225712       -2.2940332660
 C          4.0176595106       -1.8225134138       -1.1935696182
 H          4.3568477661       -2.7494080516       -1.6314788318
 C          8.2283704693       -1.6308288454        1.5380422668
 C          8.5667035339       -2.9594982573        0.8601745528
 H          8.6489923752       -2.8442821693       -0.2183284426
 H          7.8256320885       -3.7219840658        1.0900695175
 H          9.5263589205       -3.3138352661        1.2262766471
 C          8.1677119296       -1.8592284576        3.0568017759
 H          7.3668481057       -2.5519072166        3.3067231272
 H          8.0044159346       -0.9332162512        3.6011710236
 H          9.1069525965       -2.2858167565        3.3968546697
 C          9.3344627982       -0.6172890811        1.2067626910
 H          9.1907985608        0.3266945615        1.7250709773
 H          9.3647931728       -0.4217993319        0.1370703890
 H         10.2971120037       -1.0204365416        1.5078116163
 C          0.1844810857       -0.1904442084       -2.3845272377
 H          0.1293684533       -1.2604598775       -2.1633525689
 H          0.6687132733       -0.0919816995       -3.3625074013
 H         -0.8466699089        1.2794685635       -4.3739865832
 C         -1.5826741986        1.0761168143       -3.6103582870
 C         -3.5092597483        0.5455726361       -1.6582002692
 C         -2.8729423425        1.5379979848       -3.7842170097
 C         -1.2113542370        0.3491398673       -2.4853423769
 C         -2.1784992772        0.0876907075       -1.4722691898
 C         -3.8664555761        1.2746305003       -2.8217151784
 C         -4.4960667178        0.2706504855       -0.6855091135
 C         -6.4940808655       -0.3107285463        1.2633634904
 C         -5.8319933856        0.7078775924       -0.8696495824
 C         -4.1679098186       -0.4517640840        0.4845780876
 C         -5.1752274993       -0.7261422654        1.4336528831
 C         -6.8016702525        0.4052803399        0.1114433048
 H         -4.8938019770       -1.2821114609        2.3152211545
 H         -7.8085426940        0.7498669733       -0.0619553933
 C         -1.8744328406       -0.6181456279       -0.2841449376
 H         -0.8652427234       -0.9585218603       -0.1107359121
 C         -2.8333982924       -0.8780060923        0.6612354440
 H         -2.5736277844       -1.4224988762        1.5568609702
 C         -5.2013410129        1.7096455979       -2.9836281845
 H         -5.4618878052        2.2643623353       -3.8726055873
 C         -6.1577425087        1.4325806751       -2.0370028503
 H         -7.1742344394        1.7676781138       -2.1794281226
 C         -7.5272563488       -0.6515369190        2.3210169971
 C         -8.9186910819       -0.1194911068        1.9745474903
 H         -9.2887385740       -0.5512570967        1.0473439914
 H         -8.9210468271        0.9655599472        1.8981537321
 H         -9.6130615322       -0.3941747311        2.7638485293
 C         -7.0877256094       -0.0346626852        3.6578881090
 H         -7.8314715430       -0.2519214711        4.4190834346
 H         -6.9967349173        1.0456479632        3.5678559392
 H         -6.1357224645       -0.4339850371        3.9968940879
 C         -7.6078633227       -2.1804051105        2.4522539935
 H         -7.8867707371       -2.6305405220        1.5020379132
 H         -8.3627382027       -2.4420400518        3.1881268949
 H         -6.6635993865       -2.6115272436        2.7735258414
 H         -3.1320215268        2.0975366328       -4.6702730940
