77
       -105.32590255
 H          0.0667718770        2.2758128805       -0.0519659712
 C          1.0577281847        1.8469905223       -0.0217264762
 C          3.6199446177        0.7491072231        0.0954126337
 C          1.2016383337        0.5209810676        0.3933623250
 C          2.1379741983        2.6193570143       -0.3788433449
 C          3.4451301360        2.0924829975       -0.3252104476
 C          2.4997759651       -0.0537451918        0.4505995956
 H          1.9954200768        3.6425421334       -0.6915630462
 C          4.9279711425        0.2187335130        0.1663211641
 C          7.5679752929       -0.8507799784        0.3396901882
 C          5.1441846318       -1.1153770805        0.5854948942
 C          6.0490035650        1.0157096260       -0.1735933810
 C          7.3417071608        0.4612531675       -0.0790409446
 C          6.4602213173       -1.6228235101        0.6625564577
 H          8.1759597223        1.0932205223       -0.3438166590
 H          6.5817777680       -2.6437667446        0.9871945387
 C          4.5734540398        2.8692537968       -0.6679639352
 H          4.4224865603        3.8891400586       -0.9885809384
 C          5.8414676718        2.3485763815       -0.5934263848
 H          6.6948800473        2.9566267445       -0.8535018444
 C          2.7502491545       -1.3900055339        0.8510915810
 H          1.9286740862       -2.0381516198        1.1135119573
 C          4.0206764756       -1.9010572525        0.9183569647
 H          4.1726661861       -2.9228650048        1.2327064480
 C          8.9899713182       -1.3711074951        0.4241296970
 C          9.0560213573       -2.8214654521        0.9048854488
 H          8.6394649734       -2.9266859342        1.9042659447
 H         10.0947174677       -3.1374157572        0.9472663263
 H          8.5369044416       -3.4899980220        0.2215932878
 C          9.7772077041       -0.4933597867        1.4098128959
 H          9.3167451548       -0.5195953085        2.3950927981
 H          9.8298010624        0.5411553805        1.0821609624
 H         10.7929666200       -0.8681685147        1.4970868286
 C          9.6288520921       -1.2886216564       -0.9712218523
 H          9.0608382819       -1.8801067706       -1.6861002997
 H         10.6406991374       -1.6814562070       -0.9298836220
 H          9.6817109823       -0.2662510951       -1.3350141337
 C         -0.0414295852       -0.1975619114        0.8311555428
 H         -0.3439233232        0.2534756613        1.7808931720
 H          0.1537822987       -1.2539312314        1.0317623188
 H          0.1664041686       -0.1840731503       -1.8250157516
 C         -0.8686884462       -0.1397657603       -1.5198910915
 C         -3.5481036968       -0.0642624920       -0.7403387275
 C         -1.8520836227       -0.0991594930       -2.4823287467
 C         -1.1702595988       -0.1282154554       -0.1580238706
 C         -2.5317086483       -0.1095125762        0.2531541407
 C         -3.2131786506       -0.0500831826       -2.1186668227
 C         -4.9103119327       -0.0405990501       -0.3651734504
 C         -7.6585864076        0.0003446584        0.4000646298
 C         -5.9284826538        0.0077481277       -1.3493044638
 C         -5.2832588006       -0.0706858813        0.9992678599
 C         -6.6504534660       -0.0489164242        1.3536316517
 C         -7.2781945946        0.0287490055       -0.9422553003
 H         -6.8928301152       -0.0729191961        2.4039519858
 H         -8.0315908931        0.0668706185       -1.7145440552
 C         -2.9382871068       -0.1456415857        1.6099776596
 H         -2.1980073418       -0.1976945609        2.3929405532
 C         -4.2613305735       -0.1289125006        1.9701834017
 H         -4.5342112121       -0.1610183483        3.0144456105
 C         -4.2415900835       -0.0017745851       -3.0854983932
 H         -3.9706013564        0.0092945853       -4.1305962938
 C         -5.5627895179        0.0288503582       -2.7138315685
 H         -6.3376244190        0.0657545447       -3.4648305602
 C         -9.1322079161        0.0209755913        0.7583731857
 C         -9.3688321580       -0.0073569336        2.2691822665
 H         -8.9315258004        0.8621582028        2.7550526009
 H         -8.9683689236       -0.9146154765        2.7161786545
 H        -10.4375136166        0.0102615334        2.4645061655
 C         -9.8064802586       -1.2113369398        0.1351012466
 H        -10.8603997547       -1.2195030558        0.3978609877
 H         -9.3525478354       -2.1254472628        0.5117464802
 H         -9.7317171662       -1.2114982298       -0.9488096163
 C         -9.7609425308        1.3025845954        0.1894108707
 H         -9.2638357854        2.1825459507        0.5920276377
 H        -10.8100660247        1.3456637083        0.4675097316
 H         -9.7010592647        1.3389455803       -0.8947629788
 H         -1.5873171916       -0.1083299477       -3.5287520010
