77
       -105.32588889
 H         -0.1730292186        1.6753974685       -0.0792519508
 C          0.8588591161        1.3606670103       -0.0262033396
 C          3.5275438491        0.5600228026        0.1384632023
 C          1.1415063889        0.0227728887        0.2503869732
 C          1.8560025275        2.2876377864       -0.2279439022
 C          3.2125899353        1.9105635447       -0.1596579398
 C          2.4964788439       -0.3958396807        0.3534236893
 H          1.6059988404        3.3163726273       -0.4384972336
 C          4.8846082739        0.1755831201        0.2253211122
 C          7.6224492702       -0.6093587449        0.3953250078
 C          5.2380861515       -1.1592495651        0.5337665976
 C          5.9170970331        1.1213991582        0.0087226461
 C          7.2611322059        0.7051236510        0.0973775474
 C          6.6005364203       -1.5241017086        0.6122340698
 H          8.0256394917        1.4476520362       -0.0748108856
 H          6.8280458130       -2.5509274486        0.8496566473
 C          4.2551344202        2.8401725437       -0.3685544571
 H          3.9988488629        3.8647464823       -0.5927731874
 C          5.5712936607        2.4584284216       -0.2892158831
 H          6.3573139180        3.1804808147       -0.4520016270
 C          2.8835961588       -1.7214735742        0.6702188472
 H          2.1316052462       -2.4718765342        0.8578686262
 C          4.2016482346       -2.0896287560        0.7589149777
 H          4.4590988297       -3.1090646780        1.0047093438
 C          9.0912939582       -0.9802717138        0.4675085841
 C          9.3076679977       -2.4539500278        0.8145788382
 H          8.8906856710       -2.6965162741        1.7895077621
 H         10.3738210808       -2.6597228627        0.8531521997
 H          8.8743481039       -3.1068381554        0.0600915136
 C          9.7669360305       -0.1200165898        1.5467055508
 H          9.2943732526       -0.2803622932        2.5133111300
 H          9.7197141405        0.9396356533        1.3119271500
 H         10.8139530787       -0.3974430472        1.6280483097
 C          9.7346605278       -0.7005415016       -0.8999422102
 H          9.6764760362        0.3503468190       -1.1694223989
 H          9.2457190632       -1.2832723240       -1.6776361754
 H         10.7836236615       -0.9809666562       -0.8710186722
 C         -0.0101114052       -0.9151215641        0.4804419807
 H         -0.2759002922       -0.8601805954        1.5387585831
 H          0.2938752278       -1.9465512584        0.2829684870
 H          0.0526544720       -0.7768206750       -2.1363622552
 C         -0.9559232034       -0.6230883284       -1.7814132566
 C         -3.5634737757       -0.2529913764       -0.8611154776
 C         -1.9704863421       -0.4375496848       -2.6908827586
 C         -1.1900979959       -0.6334659514       -0.4044259824
 C         -2.5110744307       -0.4367200071        0.0793341537
 C         -3.2990398512       -0.2535970018       -2.2547335846
 C         -4.8926028910       -0.0718417320       -0.4164874429
 C         -7.5745859311        0.2892388420        0.4888084393
 C         -5.9469941413        0.1015867669       -1.3468812053
 C         -5.1968504306       -0.0643001978        0.9654767197
 C         -6.5321437952        0.1168962470        1.3894451730
 C         -7.2625129180        0.2765634793       -0.8714588730
 H         -6.7217640083        0.1168766605        2.4508172218
 H         -8.0448036354        0.4039890999       -1.6044267474
 C         -2.8484909225       -0.4146667288        1.4556331007
 H         -2.0788677083       -0.5370252841        2.2018077753
 C         -4.1391496444       -0.2374883821        1.8830316169
 H         -4.3584852259       -0.2295653748        2.9402982557
 C         -4.3622490952       -0.0774306871       -3.1671730303
 H         -4.1437889571       -0.0817326862       -4.2245101561
 C         -5.6516897906        0.0934512843       -2.7283677051
 H         -6.4547697110        0.2232794773       -3.4382129851
 C         -9.0147962472        0.4880751101        0.9203294641
 C         -9.1778253515        0.4804369870        2.4409208525
 H        -10.2250863462        0.6290849297        2.6893085151
 H         -8.6126032124        1.2862809604        2.9041050850
 H         -8.8709292174       -0.4718829118        2.8676789924
 C         -9.8671222521       -0.6468911915        0.3311470148
 H         -9.8529647015       -0.6452042626       -0.7551738127
 H        -10.8981515769       -0.5294537051        0.6521126956
 H         -9.5081462766       -1.6130846792        0.6789443722
 C         -9.5069816213        1.8412290545        0.3829232849
 H         -8.8908576276        2.6510996739        0.7677167121
 H        -10.5308980210        2.0079973172        0.7048252596
 H         -9.4876061297        1.8798714553       -0.7026697990
 H         -1.7599187188       -0.4419914679       -3.7494840679
