77
       -105.32591896
 H          0.0772643191        2.4423959827        0.0813319592
 C          1.0589562734        1.9918466677        0.0917281439
 C          3.5960801920        0.8328804667        0.1444456813
 C          1.1918141407        0.6869027114        0.5717873854
 C          2.1397763475        2.7185140990       -0.3496559857
 C          3.4354210267        2.1616055807       -0.3254980225
 C          2.4745380226        0.0775215164        0.5883370719
 H          2.0074375638        3.7283244394       -0.7071063827
 C          4.8908370879        0.2673606198        0.1706621703
 C          7.5034020158       -0.8780410629        0.2355413792
 C          5.0908830623       -1.0569671980        0.6275224637
 C          6.0141476030        1.0177524312       -0.2564638994
 C          7.2935286642        0.4274282931       -0.2113051394
 C          6.3937680425       -1.6025078048        0.6495090755
 H          8.1304344190        1.0251662032       -0.5395384934
 H          6.5036197929       -2.6148224604        1.0039921774
 C          4.5659075265        2.8926793478       -0.7514617468
 H          4.4263562264        3.9029696065       -1.1058593706
 C          5.8219943792        2.3398347609       -0.7158337466
 H          6.6774968368        2.9130590448       -1.0401950875
 C          2.7071038959       -1.2505532817        1.0250520989
 H          1.8806013174       -1.8641888967        1.3482644366
 C          3.9645472779       -1.7967003322        1.0458226621
 H          4.1039981657       -2.8112442704        1.3882576143
 C          8.9108995390       -1.4425276324        0.2501480568
 C          8.9588462550       -2.8847424003        0.7566756702
 H          8.6022986124       -2.9570635273        1.7817980104
 H          9.9871499760       -3.2352713694        0.7414747165
 H          8.3761246178       -3.5476034664        0.1206817313
 C          9.7807101114       -0.5713480243        1.1701230043
 H          9.8461375409        0.4541961358        0.8174812309
 H         10.7876212647       -0.9771055473        1.2071277175
 H          9.3774001127       -0.5631849399        2.1804234669
 C          9.4704851219       -1.4082430866       -1.1808354160
 H         10.4688973531       -1.8359270343       -1.1895560429
 H          9.5378287693       -0.3953769757       -1.5679942381
 H          8.8420929446       -1.9920960423       -1.8500287067
 C         -0.0535179174        0.0312365587        1.0947900391
 H         -0.4067244935        0.6443568495        1.9283779543
 H          0.1500335733       -0.9638775168        1.4972370707
 H          0.2783160933       -0.3784848993       -1.5178188494
 C         -0.7706174672       -0.3153783123       -1.2682104071
 C         -3.4844995396       -0.1780754610       -0.6292016541
 C         -1.7084360781       -0.4520617045       -2.2668556529
 C         -1.1363149404       -0.0994132122        0.0600907953
 C         -2.5154979975       -0.0489513338        0.4033743162
 C         -3.0854927921       -0.3753924473       -1.9760164269
 C         -4.8627619518       -0.1148375684       -0.3240395850
 C         -7.6433776052        0.0327927756        0.2967664145
 C         -5.8339276548       -0.2332981983       -1.3488752369
 C         -5.2986769799        0.0660190281        1.0097790831
 C         -6.6809959881        0.1352535707        1.2925792228
 C         -7.2010102306       -0.1540362012       -1.0133956908
 H         -6.9723741236        0.2732127450        2.3214613788
 H         -7.9175747248       -0.2437124927       -1.8158721044
 C         -2.9841484447        0.1154734099        1.7302295839
 H         -2.2799201217        0.1925342202        2.5438017316
 C         -4.3228307328        0.1689891827        2.0235512253
 H         -4.6438847549        0.2937478284        3.0469417576
 C         -4.0680113240       -0.4990965767       -2.9831241518
 H         -3.7485798906       -0.6520238192       -4.0030974075
 C         -5.4051815838       -0.4272211435       -2.6810567524
 H         -6.1444561416       -0.5210175949       -3.4623380162
 C         -9.1316697222        0.1196800287        0.5757170403
 C         -9.8048098029       -1.1753487509        0.0955351251
 H         -9.3802237953       -2.0375469463        0.6052266227
 H         -9.6943522430       -1.3196121481       -0.9755550023
 H        -10.8670947064       -1.1355518952        0.3187742608
 C         -9.7021589651        1.3206116394       -0.1955671800
 H         -9.2146119740        2.2413398643        0.1176799035
 H        -10.7653449611        1.4102848957        0.0079548746
 H         -9.5744029922        1.2117275036       -1.2690655095
 C         -9.4398785006        0.3052223316        2.0622695112
 H         -9.0739094643       -0.5337353030        2.6501016575
 H        -10.5162452045        0.3584268231        2.2006903187
 H         -9.0138904893        1.2307850473        2.4432734390
 H         -1.3946893109       -0.6195091934       -3.2860323175
