77
       -105.32588312
 H          1.0767236824        4.4864032869       -0.5069755765
 C          1.7706189208        3.6627806550       -0.4274097540
 C          3.5888438144        1.5505595310       -0.2353483427
 C          1.3173590253        2.3683754179       -0.6533787045
 C          3.0898186100        3.9266777262       -0.1136368498
 C          4.0297853642        2.8821476602       -0.0224655588
 C          2.2290273211        1.2793539627       -0.5394243190
 H          3.4128533692        4.9430744333        0.0533764797
 C          4.5209262334        0.4925192286       -0.1499852960
 C          6.4069122167       -1.6405791042       -0.0044650520
 C          4.1089952097       -0.8442472110       -0.3549487007
 C          5.8847534538        0.7538896676        0.1353997388
 C          6.7976207785       -0.3216768197        0.2005659367
 C          5.0621547688       -1.8816209391       -0.2773265652
 H          7.8276868966       -0.0870042188        0.4161857403
 H          4.7170308929       -2.8913067652       -0.4412879632
 C          5.3917083136        3.1222968390        0.2688254087
 H          5.7162374211        4.1395340756        0.4294115732
 C          6.2943846800        2.0892062374        0.3430928280
 H          7.3323963698        2.2911973052        0.5611847675
 C          1.8415157483       -0.0690151530       -0.7238052446
 H          0.8094537691       -0.3019126222       -0.9359079301
 C          2.7476209613       -1.0945533858       -0.6338707776
 H          2.4242814648       -2.1140243921       -0.7829692084
 C          7.3774298359       -2.8053544660        0.0558488590
 C          8.8076234157       -2.3615026065        0.3668731471
 H          9.1919065030       -1.6947649674       -0.4017870371
 H          9.4541698151       -3.2342505950        0.3966262816
 H          8.8696401366       -1.8737524484        1.3371493020
 C          7.3726110503       -3.5188127146       -1.3050379208
 H          7.6664404464       -2.8326937036       -2.0963724657
 H          6.3947494513       -3.9258000114       -1.5476472526
 H          8.0819533759       -4.3411730370       -1.2859411541
 C          6.9170386021       -3.7745772332        1.1557126071
 H          7.6177617126       -4.6014552455        1.2266333600
 H          5.9331395297       -4.1868143573        0.9490601285
 H          6.8849201622       -3.2705764685        2.1192567651
 C         -0.1079828577        2.1478094553       -1.0649092386
 H         -0.1175523041        1.5334006294       -1.9700350655
 H         -0.5488818171        3.1148560281       -1.3313410753
 H          0.3970100067        1.8395219124        1.5699978916
 C         -0.5746893295        1.4518587168        1.3028304043
 C         -3.1044903463        0.4683945900        0.6413943986
 C         -1.3741030939        0.9092659057        2.2883430304
 C         -0.9924196471        1.5216405101       -0.0216013261
 C         -2.2862685136        1.0362629470       -0.3716266025
 C         -2.6503776170        0.4004129544        1.9833830609
 C         -4.3880052693       -0.0289750697        0.3228346585
 C         -6.9699523283       -1.0534695223       -0.3242048419
 C         -5.2111926485       -0.5983388091        1.3267813564
 C         -4.8754027589        0.0370198121       -1.0028165526
 C         -6.1564007241       -0.4760707445       -1.2970979474
 C         -6.4844978987       -1.0994625797        0.9780292281
 H         -6.4991847235       -0.4101738310       -2.3186716386
 H         -7.0823323243       -1.5283431722        1.7662698209
 C         -2.8072625184        1.1025412866       -1.6860498504
 H         -2.2202258218        1.5476118576       -2.4739229672
 C         -4.0556988601        0.6222651884       -1.9916760734
 H         -4.4243705712        0.6900350473       -3.0043150867
 C         -3.4889214778       -0.1621105857        2.9723276522
 H         -3.1339400052       -0.2020318088        3.9912707815
 C         -4.7324851408       -0.6495111296        2.6543386179
 H         -5.3602817855       -1.0768822791        3.4217899276
 C         -8.3297316610       -1.6006559025       -0.7152049044
 C         -8.1316249942       -2.6939649482       -1.7769418098
 H         -7.5057818770       -3.4944254702       -1.3880977702
 H         -7.6712254380       -2.3045525304       -2.6808028855
 H         -9.0954051521       -3.1153098871       -2.0477566972
 C         -9.1744592292       -0.4559465442       -1.2953682796
 H         -8.7265383844       -0.0333125296       -2.1905299484
 H         -9.2950417594        0.3385862302       -0.5622238262
 H        -10.1596637092       -0.8298643204       -1.5587382430
 C         -9.0812192844       -2.2073981295        0.4708570953
 H         -8.5326239604       -3.0416178255        0.9027644365
 H        -10.0405829948       -2.5870684126        0.1301799981
 H         -9.2773784943       -1.4627115603        1.2390037818
 H         -1.0239027541        0.8751985298        3.3089246350
