77
       -105.32587055
 H          1.0819156186        4.4943345415       -0.5095797374
 C          1.7740346591        3.6692467015       -0.4297280509
 C          3.5877188061        1.5531802613       -0.2367733052
 C          1.3178013023        2.3756434346       -0.6542585397
 C          3.0939886768        3.9305001257       -0.1168936920
 C          4.0316734295        2.8839693866       -0.0251370434
 C          2.2272013732        1.2847368634       -0.5401260912
 H          3.4193526053        4.9463279113        0.0490633709
 C          4.5174855339        0.4931485219       -0.1508756948
 C          6.3986982717       -1.6440490798       -0.0037468548
 C          4.1025545666       -0.8428540945       -0.3547558142
 C          5.8819530764        0.7517155184        0.1340168973
 C          6.7924068602       -0.3258409635        0.2000172498
 C          5.0533965924       -1.8822952694       -0.2763670830
 H          7.8230317408       -0.0933004192        0.4152766469
 H          4.7059944871       -2.8913363273       -0.4394918153
 C          5.3942168180        3.1213381135        0.2655126908
 H          5.7210781991        4.1379869141        0.4250939937
 C          6.2946060788        2.0862949449        0.3404584720
 H          7.3331170987        2.2861643641        0.5581294587
 C          1.8367300975       -0.0628719842       -0.7237459004
 H          0.8041426943       -0.2935971447       -0.9356882778
 C          2.7406022859       -1.0903371866       -0.6333866150
 H          2.4150176383       -2.1091791447       -0.7818980785
 C          7.3665386278       -2.8109855583        0.0578388604
 C          8.7978335789       -2.3700453125        0.3679192340
 H          9.1834137272       -1.7051204704       -0.4016611518
 H          9.4423832943       -3.2442389613        0.3985463079
 H          8.8612555832       -1.8812679207        1.3375868771
 C          7.3597703368       -3.5263677296       -1.3020196301
 H          6.3809450075       -3.9315112988       -1.5438167879
 H          8.0672633143       -4.3502966500       -1.2819234849
 H          7.6549581593       -2.8420402423       -2.0943979394
 C          6.9041164762       -3.7775669525        1.1591807586
 H          7.6027923603       -4.6060982487        1.2309954687
 H          5.9191082725       -4.1875955908        0.9534098595
 H          6.8735840390       -3.2721664667        2.1220435374
 C         -0.1082973249        2.1575766070       -1.0645191231
 H         -0.1193878013        1.5454485339       -1.9711570577
 H         -0.5486428942        3.1256804409       -1.3280547947
 H          0.3962849166        1.8521211034        1.5703003780
 C         -0.5744214082        1.4619496588        1.3031634697
 C         -3.1017373366        0.4722290545        0.6416557945
 C         -1.3728051952        0.9181375399        2.2887995918
 C         -0.9919049758        1.5298380318       -0.0214819991
 C         -2.2846055113        1.0414424802       -0.3715153088
 C         -2.6477873512        0.4060491691        1.9837894813
 C         -4.3840773460       -0.0281955813        0.3231228042
 C         -6.9636590530       -1.0587219488       -0.3238350205
 C         -5.2062008794       -0.5988175575        1.3272246141
 C         -4.8713848259        0.0359960130       -1.0026528213
 C         -6.1511075424       -0.4802720924       -1.2969338101
 C         -6.4783784682       -1.1028375680        0.9785334449
 H         -6.4937084322       -0.4159813030       -2.3186707598
 H         -7.0754789381       -1.5324454509        1.7669333668
 C         -2.8056371905        1.1060676240       -1.6860151977
 H         -2.2196344721        1.5523454617       -2.4739777786
 C         -4.0529121509        0.6227763504       -1.9916204349
 H         -4.4216358303        0.6893786237       -3.0043178837
 C         -3.4852550511       -0.1578186631        2.9728720693
 H         -3.1303937163       -0.1963571382        3.9919099713
 C         -4.7276536275       -0.6481945507        2.6549063730
 H         -5.3546448867       -1.0765503048        3.4224663670
 C         -8.3219610782       -1.6095594003       -0.7148543758
 C         -8.1199237808       -2.7060632583       -1.7725971266
 H         -9.0824868199       -3.1296655044       -2.0442124485
 H         -7.4937949369       -3.5043471793       -1.3797539338
 H         -7.6579569782       -2.3188307486       -2.6766083124
 C         -9.1682719303       -0.4686633004       -1.3001308358
 H        -10.1526404034       -0.8453723697       -1.5626475579
 H         -8.7206548263       -0.0487860047       -2.1967329687
 H         -9.2907822743        0.3285730499       -0.5702452511
 C         -9.0739616893       -2.2137830757        0.4721759160
 H         -8.5249605914       -3.0461743024        0.9070719183
 H        -10.0325501903       -2.5954941168        0.1316006667
 H         -9.2716964143       -1.4670716150        1.2379603541
 H         -1.0228550435        0.8856207136        3.3095166024
