77
       -105.32583171
 H          1.0970812970        4.5179874220       -0.5158192750
 C          1.7839465321        3.6885826060       -0.4353706657
 C          3.5841743189        1.5611479963       -0.2403902805
 C          1.3190101374        2.3974723975       -0.6561763930
 C          3.1060909653        3.9419018104       -0.1251313098
 C          4.0369977689        2.8894625396       -0.0319723364
 C          2.2216560652        1.3009816413       -0.5418151596
 H          3.4382946034        4.9559571718        0.0380981553
 C          4.5070403331        0.4952155479       -0.1531746252
 C          6.3740236092       -1.6541063718       -0.0020382735
 C          4.0832052023       -0.8384106895       -0.3542075682
 C          5.8733679079        0.7453656846        0.1303338090
 C          6.7766450516       -0.3380829463        0.1983884567
 C          5.0271081918       -1.8839665971       -0.2738782392
 H          7.8089146459       -0.1119344381        0.4125788018
 H          4.6729578510       -2.8910126485       -0.4347802248
 C          5.4013565505        3.1184732493        0.2569123695
 H          5.7350804935        4.1332979123        0.4138809178
 C          6.2949436152        2.0776687781        0.3335097025
 H          7.3349081542        2.2711696137        0.5499954951
 C          1.8224024778       -0.0442889691       -0.7235727399
 H          0.7883074397       -0.2685134256       -0.9351855137
 C          2.7195887616       -1.0774556026       -0.6321066294
 H          2.3873807512       -2.0943729933       -0.7791184642
 C          7.3338603719       -2.8274818572        0.0625174237
 C          8.7683238336       -2.3954404040        0.3704569389
 H          9.1579593791       -1.7354424167       -0.4013156298
 H          9.4068810825       -3.2739382695        0.4033009608
 H          8.8356814358       -1.9042403285        1.3386314480
 C          7.3214189629       -3.5471562311       -1.2950251999
 H          7.6205867532       -2.8673446957       -2.0897896762
 H          6.3398001801       -3.9466406319       -1.5348840747
 H          8.0234722018       -4.3756685231       -1.2727491284
 C          6.8652962661       -3.7872886246        1.1672006155
 H          7.5580371756       -4.6206032465        1.2411164781
 H          5.8771984867       -4.1908167003        0.9633840861
 H          6.8390899879       -3.2786759722        2.1284982230
 C         -0.1092476823        2.1867322833       -1.0627552271
 H         -0.1246762623        1.5814063244       -1.9738492589
 H         -0.5480726034        3.1578393816       -1.3176898770
 H          0.3947923731        1.8874807628        1.5715347422
 C         -0.5730729678        1.4902913415        1.3044066443
 C         -3.0932590852        0.4829736613        0.6425589736
 C         -1.3681680730        0.9420679458        2.2901638741
 C         -0.9902027900        1.5538461408       -0.0206610966
 C         -2.2795706757        1.0568895169       -0.3707983742
 C         -2.6394252444        0.4208866911        1.9849277029
 C         -4.3721316770       -0.0262323254        0.3239806694
 C         -6.9448313799       -1.0739125665       -0.3229557488
 C         -5.1908885210       -0.6013451786        1.3282732937
 C         -4.8593457688        0.0334974283       -1.0020438753
 C         -6.1352708402       -0.4919807453       -1.2964722249
 C         -6.4598112462       -1.1135435314        0.9796546453
 H         -6.4773614773       -0.4319926372       -2.3186419432
 H         -7.0545696711       -1.5459225046        1.7683111586
 C         -2.8008494712        1.1174290312       -1.6854170276
 H         -2.2180114524        1.5677380196       -2.4734412709
 C         -4.0446660007        0.6253806775       -1.9910963284
 H         -4.4136513049        0.6891165646       -3.0038827476
 C         -3.4734403331       -0.1478420760        2.9741386538
 H         -3.1186228608       -0.1833258283        3.9933025476
 C         -4.7124940349       -0.6465709236        2.6561568676
 H         -5.3369412524       -1.0784027661        3.4238412551
 C         -8.2989288543       -1.6348212278       -0.7141028880
 C         -8.0857484319       -2.7404975917       -1.7601776160
 H         -7.4594117413       -3.5327401086       -1.3556005367
 H         -7.6186593616       -2.3597053033       -2.6643314165
 H         -9.0448934981       -3.1701005545       -2.0344256636
 C         -9.1492794607       -0.5048342755       -1.3142708536
 H         -8.7023543955       -0.0934187330       -2.2151101069
 H         -9.2768618207        0.3003588740       -0.5940442391
 H        -10.1314291446       -0.8891240617       -1.5740974678
 C         -9.0528422377       -2.2314857220        0.4755167728
 H         -9.2542159621       -1.4790368177        1.2347460360
 H         -8.5034075648       -3.0592417145        0.9185976380
 H        -10.0096356673       -2.6180240245        0.1353388393
 H         -1.0186304626        0.9130982428        3.3111261308
