77
       -105.32581992
 H          1.1006160049        4.5203087064       -0.5278426107
 C          1.7863240831        3.6902125465       -0.4446621455
 C          3.5836396424        1.5609158500       -0.2431330862
 C          1.3196157473        2.3990514560       -0.6614379525
 C          3.1087858876        3.9426641105       -0.1351083818
 C          4.0382954856        2.8892478399       -0.0388551901
 C          2.2206859236        1.3016560667       -0.5433728459
 H          3.4423856418        4.9567597457        0.0250051176
 C          4.5051511835        0.4940421494       -0.1531609519
 C          6.3696408760       -1.6571563518        0.0022610958
 C          4.0795097304       -0.8396086228       -0.3501729935
 C          5.8719470016        0.7432570825        0.1289138781
 C          6.7739527096       -0.3411126266        0.1992072183
 C          5.0222292073       -1.8861014128       -0.2678270868
 H          7.8066213633       -0.1156779170        0.4122233395
 H          4.6667286007       -2.8931365506       -0.4258157211
 C          5.4030102857        3.1173109704        0.2490175653
 H          5.7381055513        4.1321399524        0.4030128360
 C          6.2952964996        2.0755661357        0.3282357208
 H          7.3355921140        2.2683545985        0.5437662165
 C          1.8195153464       -0.0436474522       -0.7205237303
 H          0.7849677619       -0.2671667195       -0.9306972704
 C          2.7153985987       -1.0777199548       -0.6263767341
 H          2.3817496306       -2.0946541111       -0.7699931889
 C          7.3282737864       -2.8314146385        0.0683979434
 C          8.7632691232       -2.4003939955        0.3752664034
 H          9.1534905042       -1.7421749700       -0.3977312715
 H          9.4008833981       -3.2795241475        0.4094970810
 H          8.8313625803       -1.9075820977        1.3425740499
 C          7.3146349113       -3.5528936765       -1.2881936301
 H          7.6146097691       -2.8745600655       -2.0839201265
 H          6.3323889483       -3.9512780563       -1.5273486580
 H          8.0155330517       -4.3823544272       -1.2649213096
 C          6.8591896157       -3.7893029707        1.1745110932
 H          6.8334240163       -3.2793003956        2.1350838109
 H          7.5514005520       -4.6229572850        1.2495489611
 H          5.8708249943       -4.1925324425        0.9714055359
 C         -0.1087420334        2.1888926565       -1.0679952614
 H         -0.1244842141        1.5804673047       -1.9769841106
 H         -0.5461563888        3.1597145723       -1.3264755423
 H          0.3910965178        1.9054933668        1.5684523953
 C         -0.5758825415        1.5055967727        1.3021340421
 C         -3.0935288773        0.4909130722        0.6419038787
 C         -1.3719384960        0.9622094144        2.2897572077
 C         -0.9909223659        1.5609614791       -0.0239786210
 C         -2.2791563760        1.0605419162       -0.3733257363
 C         -2.6418902972        0.4372869462        1.9853761812
 C         -4.3709105954       -0.0224799848        0.3240460949
 C         -6.9395763621       -1.0806674456       -0.3217437872
 C         -5.1900523281       -0.5939863410        1.3300718558
 C         -4.8562023209        0.0293267868       -1.0030196109
 C         -6.1305080956       -0.5004962253       -1.2966943444
 C         -6.4567862511       -1.1118863315        0.9819316279
 H         -6.4716272348       -0.4455049534       -2.3194684430
 H         -7.0516396809       -1.5418911858        1.7718113592
 C         -2.7986896303        1.1134907728       -1.6889623276
 H         -2.2155348933        1.5608012937       -2.4784611937
 C         -4.0412529776        0.6178199778       -1.9938742542
 H         -4.4088895063        0.6757138282       -3.0075009146
 C         -3.4766382044       -0.1271274137        2.9764112554
 H         -3.1237155319       -0.1557229215        3.9964483774
 C         -4.7140129973       -0.6304420340        2.6590694937
 H         -5.3389272688       -1.0591765488        3.4281093117
 C         -8.2915552255       -1.6472514186       -0.7122284899
 C         -8.0761837048       -2.7486473008       -1.7622365524
 H         -7.4433191486       -3.5381995298       -1.3625947268
 H         -7.6156927299       -2.3628332674       -2.6676065823
 H         -9.0338805597       -3.1833878862       -2.0334593452
 C         -9.1476815361       -0.5186665993       -1.3069695402
 H        -10.1277349973       -0.9067505000       -1.5690696551
 H         -8.7022145220       -0.1004440993       -2.2054091330
 H         -9.2796081246        0.2821930170       -0.5827198469
 C         -9.0403905366       -2.2510955698        0.4770006166
 H         -8.4842360372       -3.0751596672        0.9186107645
 H         -9.9943615229       -2.6444780801        0.1367342416
 H         -9.2472797141       -1.5013681576        1.2373917344
 H         -1.0241350466        0.9397398724        3.3114745130
