77
       -105.32582786
 H         -0.2410944077        2.2255245566       -1.0962082732
 C          0.6947142481        1.7747274359       -0.8013651546
 C          3.1334221752        0.6420876492       -0.0437961490
 C          1.0806814996        0.5714973794       -1.3819548368
 C          1.4814753427        2.4142296180        0.1348452354
 C          2.7115444529        1.8636382468        0.5406752607
 C          2.3292792178       -0.0108805154       -1.0160751515
 H          1.1572806759        3.3508725929        0.5626050262
 C          4.3711087201        0.0834453018        0.3465130622
 C          6.8579868002       -1.0569083049        1.1526449795
 C          4.8267987995       -1.1254909963       -0.2280342969
 C          5.1796117852        0.7269691246        1.3170323982
 C          6.4054962956        0.1391718166        1.6987881550
 C          6.0609948497       -1.6687931274        0.1871759507
 H          6.9930996872        0.6542408073        2.4418179395
 H          6.3803814728       -2.5926845396       -0.2709435692
 C          3.5357676536        2.4958157834        1.4990834915
 H          3.2062108322        3.4287718911        1.9313286967
 C          4.7341191710        1.9435990153        1.8787401276
 H          5.3514203747        2.4389801766        2.6131043500
 C          2.8194450707       -1.2105277126       -1.5854521161
 H          2.2443039586       -1.7188565331       -2.3432626884
 C          4.0237505046       -1.7484816266       -1.2074466474
 H          4.3697994857       -2.6642569469       -1.6630286083
 C          8.1651484080       -1.7071024552        1.5647816385
 C          7.8621317261       -3.1076977778        2.1201505701
 H          7.1926730436       -3.0424027742        2.9752464327
 H          8.7863100894       -3.5765920897        2.4453787192
 H          7.4055512774       -3.7513469266        1.3732655816
 C          8.9041360985       -0.9088567986        2.6401077104
 H          8.3103908494       -0.8221678927        3.5475119206
 H          9.1726399872        0.0829985135        2.2834391336
 H          9.8250064985       -1.4242786472        2.8988115385
 C          9.0720219777       -1.8197697693        0.3297403492
 H          9.2677022330       -0.8358284778       -0.0908386932
 H          8.6308674187       -2.4430401892       -0.4432276742
 H         10.0211518985       -2.2635221757        0.6161726639
 C          0.2117284543       -0.0809705714       -2.4220488208
 H          0.1686826549       -1.1590076432       -2.2412788678
 H          0.6996473881        0.0603323897       -3.3929195788
 H         -0.8405986377        1.4275916760       -4.3729037821
 C         -1.5731185207        1.1939849111       -3.6146086992
 C         -3.4906977869        0.5857660316       -1.6761206400
 C         -2.8698828336        1.6422145184       -3.7757290562
 C         -1.1909571241        0.4430023586       -2.5092184104
 C         -2.1536887891        0.1413478466       -1.5030994693
 C         -3.8588872241        1.3400361493       -2.8199769645
 C         -4.4726977018        0.2720313030       -0.7103300452
 C         -6.4597404491       -0.3837069569        1.2261111097
 C         -5.8145660870        0.6960199730       -0.8818745667
 C         -4.1336156020       -0.4764453152        0.4400700249
 C         -5.1357235215       -0.7877500667        1.3831931829
 C         -6.7786143586        0.3563931062        0.0926453318
 H         -4.8459326747       -1.3631052744        2.2494750491
 H         -7.7901814770        0.6919975481       -0.0707620277
 C         -1.8392095720       -0.5925319888       -0.3348911849
 H         -0.8255188579       -0.9245565205       -0.1717882525
 C         -2.7935710186       -0.8902463707        0.6039058944
 H         -2.5257554102       -1.4552915273        1.4843030157
 C         -5.1998521557        1.7604533395       -2.9698208008
 H         -5.4689575042        2.3342189202       -3.8440359665
 C         -6.1514083905        1.4459124612       -2.0300180195
 H         -7.1725279503        1.7706407119       -2.1630576080
 C         -7.4858472324       -0.7614859354        2.2780643952
 C         -7.0477777000       -0.1731595031        3.6282571692
 H         -7.7874803237       -0.4149088912        4.3859923059
 H         -6.9661124224        0.9097375284        3.5639676475
 H         -6.0915078719       -0.5724363166        3.9550973560
 C         -7.5505699922       -2.2938272419        2.3720045517
 H         -8.2994104400       -2.5809850977        3.1045224394
 H         -6.6005784164       -2.7231629338        2.6784418603
 H         -7.8293690076       -2.7232990502        1.4122506172
 C         -8.8837271688       -0.2351314220        1.9493705709
 H         -8.8968812314        0.8513577472        1.8987827279
 H         -9.5723319225       -0.5352618974        2.7344418261
 H         -9.2531607854       -0.6483625111        1.0135276322
 H         -3.1373928545        2.2212405787       -4.6466357752
