77
       -105.32579551
 H          1.1095923860        4.5336337628       -0.5329645724
 C          1.7922051250        3.7010685842       -0.4490317746
 C          3.5815921376        1.5652451739       -0.2454269023
 C          1.3203781477        2.4113064284       -0.6629532792
 C          3.1159544481        3.9489953767       -0.1412755823
 C          4.0415004023        2.8921876449       -0.0438657320
 C          2.2174279479        1.3107052141       -0.5441202583
 H          3.4535965789        4.9620935278        0.0166662386
 C          4.4990492796        0.4949833447       -0.1543521183
 C          6.3552160416       -1.6631813203        0.0038498661
 C          4.0681278571       -0.8373322793       -0.3488681746
 C          5.8669987681        0.7393960495        0.1263487447
 C          6.7648032899       -0.3483628681        0.1980856325
 C          5.0067993089       -1.8873323826       -0.2652128142
 H          7.7984825078       -0.1265814862        0.4100369115
 H          4.6472986584       -2.8932380645       -0.4213229226
 C          5.4073261891        3.1154817914        0.2424778096
 H          5.7464912521        4.1292825671        0.3943162690
 C          6.2956332097        2.0704282640        0.3229314406
 H          7.3368264133        2.2595938968        0.5373324821
 C          1.8110298827       -0.0332874363       -0.7192054708
 H          0.7755424508       -0.2531059166       -0.9286806064
 C          2.7029853106       -1.0706364926       -0.6240457930
 H          2.3653898821       -2.0864933560       -0.7660459644
 C          7.3091791552       -2.8411226213        0.0717887235
 C          8.7459482263       -2.4152735289        0.3775339496
 H          8.8161979148       -1.9208799664        1.3438798620
 H          9.1386359848       -1.7601021263       -0.3967992841
 H          9.3800509465       -3.2968787573        0.4133247773
 C          7.2922811897       -3.5649493098       -1.2835170462
 H          6.3083735222       -3.9597943835       -1.5217133122
 H          7.9898378393       -4.3971824341       -1.2589430178
 H          7.5947759657       -2.8892429800       -2.0805229414
 C          6.8365662413       -3.7951865277        1.1797083149
 H          7.5255115520       -4.6314170943        1.2560953687
 H          5.8465854103       -4.1949027807        0.9775269037
 H          6.8130006617       -3.2833711525        2.1393734514
 C         -0.1091302392        2.2052509510       -1.0675482030
 H         -0.1271690403        1.5998623902       -1.9784973307
 H         -0.5454220990        3.1776059490       -1.3221680371
 H          0.3892603762        1.9282702822        1.5690624479
 C         -0.5759323865        1.5240186761        1.3028144054
 C         -3.0890149231        0.4982784611        0.6424225508
 C         -1.3704849682        0.9791321627        2.2907558993
 C         -0.9901944641        1.5754742392       -0.0237634968
 C         -2.2762642847        1.0696259923       -0.3731729908
 C         -2.6380755212        0.4485161069        1.9862792880
 C         -4.3640902076       -0.0207987235        0.3245198648
 C         -6.9279954590       -1.0904427038       -0.3213464704
 C         -5.1815675058       -0.5940895631        1.3308777106
 C         -4.8487069046        0.0269433162       -1.0029480340
 C         -6.1205557943       -0.5087215252       -1.2966934049
 C         -6.4459721000       -1.1176232446        0.9827146920
 H         -6.4610374538       -0.4570392026       -2.3198531458
 H         -7.0396147755       -1.5487844226        1.7728747018
 C         -2.7952900942        1.1186330083       -1.6891754951
 H         -2.2136446137        1.5673818775       -2.4789763347
 C         -4.0356065999        0.6174165804       -1.9941323029
 H         -4.4028764818        0.6724121563       -3.0080532316
 C         -3.4711516803       -0.1177968134        2.9776167874
 H         -3.1187626161       -0.1434505161        3.9979176527
 C         -4.7062800190       -0.6265924085        2.6602421258
 H         -5.3299681440       -1.0566667065        3.4295278791
 C         -8.2773263704       -1.6633219208       -0.7118521977
 C         -8.0560820762       -2.7674383327       -1.7577873337
 H         -9.0117501401       -3.2063189079       -2.0295045195
 H         -7.4213449146       -3.5535117340       -1.3542718601
 H         -7.5950095373       -2.3829817105       -2.6634465810
 C         -9.1369381928       -0.5401204659       -1.3116845075
 H         -8.6921763912       -0.1236845185       -2.2112988621
 H         -9.2724883610        0.2629869633       -0.5906010469
 H        -10.1153295906       -0.9327262453       -1.5732737104
 C         -9.0256254028       -2.2659881541        0.4783190848
 H         -9.2355408666       -1.5146491728        1.2362903873
 H         -8.4675248493       -3.0871181723        0.9229223956
 H         -9.9780511180       -2.6631985179        0.1381734926
 H         -1.0233950866        0.9598057461        3.3127793939
