77
       -105.32577055
 H          1.1182599583        4.5461788466       -0.5399371840
 C          1.7978447085        3.7112539264       -0.4549046723
 C          3.5794781588        1.5691990096       -0.2483159141
 C          1.3211276594        2.4228245552       -0.6659078617
 C          3.1227248847        3.9548553111       -0.1484895933
 C          4.0443747705        2.8948033725       -0.0494137219
 C          2.2142583264        1.3191705191       -0.5459029652
 H          3.4642093533        4.9670016458        0.0072846057
 C          4.4929948860        0.4956981600       -0.1556881190
 C          6.3410886889       -1.6690895910        0.0060411726
 C          4.0570602552       -0.8353431332       -0.3477027126
 C          5.8619363130        0.7355129989        0.1241274724
 C          6.7556856611       -0.3554590787        0.1976317770
 C          4.9917736289       -1.8886922184       -0.2622706701
 H          7.7902613092       -0.1371594196        0.4088213615
 H          4.6284650201       -2.8935373876       -0.4163576174
 C          5.4111497650        3.1135292091        0.2359830638
 H          5.7541511841        4.1263438941        0.3857787838
 C          6.2955773013        2.0653266343        0.3180931857
 H          7.3375415281        2.2510025299        0.5318011624
 C          1.8028877155       -0.0235808622       -0.7189007278
 H          0.7665778518       -0.2398577459       -0.9280222766
 C          2.6910071021       -1.0640461290       -0.6223025227
 H          2.3496817758       -2.0788781253       -0.7627026220
 C          7.2905286714       -2.8505807685        0.0762975306
 C          8.7292723993       -2.4294752100        0.3793511944
 H          9.3600359115       -3.3134124652        0.4166055258
 H          8.8025351476       -1.9329675718        1.3443798268
 H          9.1235148839       -1.7777272786       -0.3970726946
 C          7.2694671003       -3.5783688484       -1.2768037797
 H          7.5733778985       -2.9061145129       -2.0761808184
 H          6.2839372697       -3.9705439547       -1.5126708441
 H          7.9641478302       -4.4129611171       -1.2505722928
 C          6.8152040782       -3.7994340861        1.1875246774
 H          7.5006191202       -4.6384268004        1.2654396004
 H          5.8232289600       -4.1953836492        0.9876960013
 H          6.7950547386       -3.2847864556        2.1457487632
 C         -0.1094825162        2.2206955637       -1.0686302389
 H         -0.1298377480        1.6178668063       -1.9811963143
 H         -0.5445449849        3.1944751513       -1.3199060247
 H          0.3875302312        1.9513520817        1.5682026094
 C         -0.5759440834        1.5427883514        1.3022971964
 C         -3.0846181533        0.5060401521        0.6425131474
 C         -1.3690104278        0.9970444734        2.2909243070
 C         -0.9894975606        1.5897252928       -0.0247095340
 C         -2.2735081444        1.0785014360       -0.3738118406
 C         -2.6342895154        0.4607936730        1.9867370112
 C         -4.3574569529       -0.0186926470        0.3249507514
 C         -6.9166718597       -1.0999871072       -0.3202329941
 C         -5.1732713562       -0.5931399534        1.3320101917
 C         -4.8414949377        0.0243928162       -1.0028911297
 C         -6.1108691551       -0.5172307505       -1.2963397410
 C         -6.4353882531       -1.1223754269        0.9841888741
 H         -6.4507657120       -0.4693963570       -2.3198816173
 H         -7.0278458297       -1.5541235072        1.7749198474
 C         -2.7921785606        1.1231243457       -1.6901191012
 H         -2.2121094538        1.5729753813       -2.4804575739
 C         -4.0303179762        0.6163745013       -1.9947510734
 H         -4.3973444459        0.6681413376       -3.0089292121
 C         -3.4657406352       -0.1067240030        2.9787595167
 H         -3.1138429227       -0.1288789554        3.9993112927
 C         -4.6986735445       -0.6209963433        2.6617254952
 H         -5.3211435140       -1.0518893405        3.4315398222
 C         -8.2631062331       -1.6796469317       -0.7104520566
 C         -8.0351647514       -2.7883053921       -1.7502112323
 H         -8.9885812872       -3.2316294082       -2.0225790744
 H         -7.3990657792       -3.5702560333       -1.3408592436
 H         -7.5725035115       -2.4067683081       -2.6563113381
 C         -9.1259384226       -0.5630989830       -1.3179677369
 H        -10.1025893155       -0.9607288302       -1.5784347885
 H         -8.6816844409       -0.1503566984       -2.2195296995
 H         -9.2652675662        0.2437698849       -0.6018105219
 C         -9.0115849838       -2.2790572198        0.4812213131
 H         -9.2247338174       -1.5248453008        1.2354511780
 H         -8.4519921809       -3.0966461508        0.9304547331
 H         -9.9623743032       -2.6804471900        0.1414087014
 H         -1.0225546983        0.9813672136        3.3132226662
