77
       -105.32573652
 H         -0.0487302962        2.0638490529       -0.1179079816
 C          0.9607783269        1.6822620743       -0.0717703556
 C          3.5701411904        0.7061822963        0.0782563553
 C          1.1684538369        0.3951366888        0.4290466643
 C          2.0016509031        2.4756639575       -0.4938613735
 C          3.3309116097        2.0092203978       -0.4287209830
 C          2.4915184318       -0.1163822211        0.5088260895
 H          1.8103490998        3.4688884866       -0.8706258012
 C          4.9004375877        0.2357691461        0.1570531154
 C          7.5849416941       -0.7159159362        0.3323917598
 C          5.1804680054       -1.0564085942        0.6612834643
 C          5.9801582749        1.0519309231       -0.2619800494
 C          7.2961538246        0.5562620941       -0.1636291432
 C          6.5174584551       -1.5059605050        0.7372187222
 H          8.0978491889        1.2018405802       -0.4891707428
 H          6.6880567624       -2.4968067491        1.1266068894
 C          4.4191016733        2.8069204930       -0.8453432865
 H          4.2193799688        3.7960244435       -1.2294383047
 C          5.7089162692        2.3442266469       -0.7643554063
 H          6.5309120561        2.9672492980       -1.0834747064
 C          2.8059129811       -1.4075306073        1.0013826602
 H          2.0175386981       -2.0658837805        1.3315881420
 C          4.0979596472       -1.8600399540        1.0770880589
 H          4.2991349540       -2.8487565616        1.4617683482
 C          9.0282206745       -1.1751981082        0.4100645957
 C          9.6331096986       -1.1454746149       -1.0024410664
 H          9.0714290059       -1.7938349070       -1.6714927310
 H         10.6590894850       -1.5001001762       -0.9644097417
 H          9.6417056944       -0.1429941492       -1.4210403497
 C          9.1631717832       -2.5931413788        0.9670363186
 H          8.6527299936       -3.3170751178        0.3355722202
 H          8.7772304676       -2.6587582512        1.9819357945
 H         10.2141166908       -2.8672439604        0.9974352964
 C          9.8004382877       -0.2137042427        1.3272130180
 H          9.3623319058       -0.2023678543        2.3229095012
 H          9.8040788456        0.8019710241        0.9414470480
 H         10.8320281080       -0.5432738604        1.4112676934
 C         -0.0403024487       -0.3516504939        0.9154817676
 H         -0.3499853995        0.1195908845        1.8517994517
 H          0.1981701177       -1.3922495318        1.1481667274
 H          0.1848387032       -0.7108214615       -1.6935950808
 C         -0.8510446880       -0.5778074603       -1.4178461468
 C         -3.5320262619       -0.2657209323       -0.7091305874
 C         -1.8205479312       -0.6349241390       -2.3952997550
 C         -1.1672622419       -0.3601858858       -0.0782936199
 C         -2.5313226123       -0.2097269161        0.3005783196
 C         -3.1804519728       -0.4750235848       -2.0672017408
 C         -4.8960869551       -0.1197514931       -0.3692576562
 C         -7.6500572907        0.1756666029        0.3181205248
 C         -5.9004199952       -0.1745335573       -1.3683198649
 C         -5.2851411899        0.0788382785        0.9756602538
 C         -6.6530470059        0.2217452987        1.2900841120
 C         -7.2552526196       -0.0237569928       -1.0003891210
 H         -6.9150525868        0.3706769175        2.3267191610
 H         -7.9911485178       -0.0691930104       -1.7872129458
 C         -2.9548525549       -0.0139574084        1.6375697030
 H         -2.2281761598        0.0245232169        2.4339802499
 C         -4.2796333892        0.1233547914        1.9649000032
 H         -4.5659806526        0.2687273547        2.9958562140
 C         -4.1951737906       -0.5282150997       -3.0492562175
 H         -3.9115933553       -0.6892340572       -4.0785642818
 C         -5.5176030959       -0.3812734910       -2.7116876156
 H         -6.2809387942       -0.4251932323       -3.4739761386
 C         -9.1019787606        0.3384657399        0.7264126281
 C         -9.4669588042       -0.7910691123        1.7024069271
 H         -9.3248752417       -1.7617321512        1.2322849323
 H        -10.5107331894       -0.6999299905        1.9888286994
 H         -8.8666296892       -0.7554933959        2.6073287736
 C        -10.0576689982        0.2777770361       -0.4662532850
 H        -10.0032091998       -0.6847227845       -0.9700051732
 H         -9.8535776710        1.0743744399       -1.1783949172
 H        -11.0776233140        0.4059174253       -0.1142281993
 C         -9.2711421306        1.7003065784        1.4177632018
 H         -8.9810747161        2.5067278823        0.7476558978
 H         -8.6756536757        1.7738228016        2.3235530435
 H        -10.3129774652        1.8414309602        1.6906568445
 H         -1.5434962098       -0.8083592663       -3.4240636177
