77
       -105.32634365
 H          0.5881803823        3.5932861542        0.1552209872
 C          1.4384096576        2.9274276613        0.1395043633
 C          3.6465166254        1.2201016721        0.1251917626
 C          1.2670696558        1.6050713767        0.5477616514
 C          2.6635213588        3.4111692843       -0.2633489165
 C          3.8007020931        2.5770011681       -0.2589482359
 C          2.3741703211        0.7149079232        0.5073056600
 H          2.7675478332        4.4418293558       -0.5666618198
 C          4.7779638530        0.3742448677        0.1328936928
 C          7.0668272164       -1.3254960177        0.2029184179
 C          4.6570846111       -0.9871644060        0.4990225894
 C          6.0551534933        0.8775135623       -0.2172040814
 C          7.1698853047        0.0153740579       -0.1704344490
 C          5.8056827839       -1.8095582843        0.5240717873
 H          8.1316298794        0.4282318254       -0.4349811118
 H          5.6732968411       -2.8409740595        0.8090091088
 C          5.0786262478        3.0562480294       -0.6218151887
 H          5.1807200617        4.0900240538       -0.9161982881
 C          6.1776614154        2.2329773659       -0.5961968686
 H          7.1499474560        2.6170432619       -0.8662308196
 C          2.2775566334       -0.6604255003        0.8332666992
 H          1.3171145147       -1.0848231691        1.0813968934
 C          3.3766480964       -1.4806527345        0.8289208033
 H          3.2703636014       -2.5237702283        1.0871481747
 C          8.3168372382       -2.1832982235        0.2487259341
 C          8.0218851075       -3.6272004406        0.6577429636
 H          7.5927513775       -3.6768901569        1.6560743504
 H          8.9502366758       -4.1915146663        0.6714774334
 H          7.3530889603       -4.1111170913       -0.0507474892
 C          9.2867250542       -1.5725103715        1.2727377540
 H          9.5900465387       -0.5665609420        0.9960352913
 H         10.1807678147       -2.1861659790        1.3359100320
 H          8.8269046383       -1.5346364854        2.2579745316
 C          8.9675400849       -2.1929458573       -1.1431792941
 H          9.2783099211       -1.2000244015       -1.4556344730
 H          8.2762877926       -2.5875883157       -1.8847439077
 H          9.8489019868       -2.8275861697       -1.1259248683
 C         -0.0813433763        1.1982234936        1.0651641848
 H         -0.5060444529        2.0604149916        1.5901603204
 H          0.0188119716        0.3965848539        1.8018601404
 H          0.3522716931        0.8045002203       -1.5827038849
 C         -0.6783157390        0.6265634653       -1.3141612714
 C         -3.3509635745        0.1634175916       -0.6426219021
 C         -1.5752168374        0.2691083613       -2.2984590573
 C         -1.0700469260        0.7721427825        0.0134921700
 C         -2.4254773897        0.5252664411        0.3720008855
 C         -2.9309107172        0.0377360302       -1.9916416917
 C         -4.7057172884       -0.0715752477       -0.3179843059
 C         -7.4406736298       -0.5381190567        0.3426497691
 C         -5.6373693787       -0.4202772257       -1.3268310078
 C         -5.1562088358        0.0399684379        1.0184182146
 C         -6.5155576226       -0.1978515240        1.3210888287
 C         -6.9837699944       -0.6429240757       -0.9714988789
 H         -6.8198645205       -0.1051884044        2.3513206526
 H         -7.6717718182       -0.9041836214       -1.7613700127
 C         -2.9040073548        0.6241866353        1.7011837365
 H         -2.2246979473        0.8878431974        2.4964825574
 C         -4.2189854415        0.3889972459        2.0137457137
 H         -4.5511365827        0.4727538761        3.0377704823
 C         -3.8738084198       -0.3132897896       -2.9832184196
 H         -3.5413315066       -0.4046013005       -4.0064113696
 C         -5.1905666760       -0.5338715159       -2.6623759569
 H         -5.8998225191       -0.7982127399       -3.4323652446
 C         -8.9049155209       -0.7931481821        0.6458449651
 C         -9.2281699973       -0.6551685434        2.1344906701
 H         -9.0257618638        0.3517530031        2.4927575891
 H         -8.6684421262       -1.3735198013        2.7295109541
 H        -10.2852012318       -0.8521850211        2.2908073677
 C         -9.2616317894       -2.2196188606        0.1996579747
 H         -8.6405860477       -2.9478035797        0.7169142960
 H         -9.1336041179       -2.3559559269       -0.8705312262
 H        -10.3007948251       -2.4250779975        0.4400354323
 C         -9.7510181440        0.2248017694       -0.1347154901
 H         -9.4884653481        1.2402818540        0.1539722479
 H        -10.8027262107        0.0676396972        0.0868190694
 H         -9.6165894040        0.1268209174       -1.2084317049
 H         -1.2434281125        0.1689300142       -3.3208441612
