77
       -105.32569730
 H         -0.2244536133        2.3483327517       -1.0480509786
 C          0.7012704544        1.8728701988       -0.7601115599
 C          3.1136178472        0.6752350118       -0.0190442693
 C          1.0882147863        0.6998480177       -1.3995348491
 C          1.4742055455        2.4513036624        0.2257026156
 C          2.6903546711        1.8659235007        0.6250676119
 C          2.3247153338        0.0865434942       -1.0436383157
 H          1.1499674891        3.3660355943        0.6984581069
 C          4.3375599047        0.0828146287        0.3648097092
 C          6.7940934981       -1.1290082533        1.1597606560
 C          4.7950325737       -1.0958954138       -0.2682050064
 C          5.1303018760        0.6615458232        1.3877064041
 C          6.3413710008        0.0395467417        1.7624244005
 C          6.0138012686       -1.6758019118        0.1429969272
 H          6.9171008842        0.5053436619        2.5461560487
 H          6.3344856699       -2.5756728187       -0.3598405787
 C          3.4995705559        2.4345730976        1.6346284141
 H          3.1694552585        3.3452007253        2.1117309963
 C          4.6841722812        1.8492504390        2.0077672045
 H          5.2899585022        2.2959046007        2.7818934369
 C          2.8180546031       -1.0820378479       -1.6719510142
 H          2.2565892571       -1.5392758362       -2.4714468190
 C          4.0091936832       -1.6525448859       -1.3001132379
 H          4.3579376541       -2.5431334646       -1.8012863294
 C          8.0833501644       -1.8178009966        1.5655114380
 C          8.8089112042       -1.0861586169        2.6959533240
 H          8.1973754078       -1.0389623007        3.5944033845
 H          9.0965649528       -0.0807001293        2.3969420457
 H          9.7179194747       -1.6262288953        2.9461814473
 C          9.0162775591       -1.8814740982        0.3465983029
 H          9.2330133758       -0.8807176621       -0.0205833042
 H          8.5856145237       -2.4605034197       -0.4656656351
 H          9.9534348835       -2.3509027819        0.6315196052
 C          7.7482416479       -3.2400447949        2.0420827130
 H          7.2971213180       -3.8369358268        1.2541412216
 H          7.0625866970       -3.2078757833        2.8861746587
 H          8.6584977252       -3.7397106084        2.3606659169
 C          0.2313947753        0.1184888655       -2.4903882874
 H          0.2031175454       -0.9709889671       -2.3975077105
 H          0.7177589697        0.3447008806       -3.4458950264
 H         -0.8618442073        1.7245335932       -4.3411145508
 C         -1.5831234766        1.4356520815       -3.5911345478
 C         -3.4719234200        0.6859499813       -1.6737945571
 C         -2.8875201461        1.8742813660       -3.7125289731
 C         -1.1792797055        0.6261232940       -2.5359847351
 C         -2.1275741617        0.2500977235       -1.5412410586
 C         -3.8620670899        1.5025937308       -2.7664189459
 C         -4.4392956815        0.3012986303       -0.7189537326
 C         -6.3963308833       -0.4958652946        1.1947978096
 C         -5.7881031529        0.7174854218       -0.8505799681
 C         -4.0783732416       -0.5113727348        0.3800673423
 C         -5.0660008720       -0.8922218963        1.3128371513
 C         -6.7369055067        0.3073699878        0.1117036940
 H         -4.7596658886       -1.5157927767        2.1391349507
 H         -7.7542367165        0.6393413271       -0.0203388152
 C         -1.7915077913       -0.5504903049       -0.4240261966
 H         -0.7722526191       -0.8796299499       -0.2926291839
 C         -2.7317847336       -0.9176657549        0.5042332590
 H         -2.4476464135       -1.5326478440        1.3451649704
 C         -5.2097572451        1.9135134666       -2.8768711597
 H         -5.4957596617        2.5350332019       -3.7122146075
 C         -6.1468306451        1.5307894434       -1.9478030621
 H         -7.1732714297        1.8497381629       -2.0504155941
 C         -7.4057097072       -0.9496824971        2.2328100924
 C         -6.9579337670       -0.4413510606        3.6119821021
 H         -6.8880934686        0.6442736125        3.6141246234
 H         -5.9939115026       -0.8496446642        3.9029433302
 H         -7.6862255510       -0.7376152509        4.3613728510
 C         -7.4528531787       -2.4855517174        2.2319648029
 H         -8.1894021080       -2.8262237899        2.9539358998
 H         -6.4945281101       -2.9221021026        2.4998656229
 H         -7.7389326287       -2.8577624210        1.2506862885
 C         -8.8129320347       -0.4198817182        1.9532270137
 H         -8.8379827746        0.6674530917        1.9695417506
 H         -9.4886951317       -0.7751922795        2.7263326483
 H         -9.1894885259       -0.7791333651        0.9981559839
 H         -3.1719895981        2.5003480756       -4.5446594297
