77
       -105.32573496
 H         -0.2258963337        1.8401200434       -1.7594745145
 C          0.7032532840        1.4136810407       -1.4119794113
 C          3.1249809503        0.3270329067       -0.5415921939
 C          1.0594121643        1.5620445787       -0.0757467862
 C          1.5109933144        0.7446667758       -2.3086237931
 C          2.7329413797        0.1804478233       -1.8967995057
 C          2.2996989311        1.0267804369        0.3792157543
 H          1.2099172487        0.6521975170       -3.3411784535
 C          4.3542861670       -0.2251986660       -0.1171182285
 C          6.8230952211       -1.3632212527        0.7459278896
 C          4.7807805478       -0.0836347497        1.2235500247
 C          5.1835022369       -0.9266936630       -1.0281599046
 C          6.3999056834       -1.4812686865       -0.5734026004
 C          6.0062966389       -0.6556716756        1.6256355309
 H          7.0038967142       -2.0107640435       -1.2927727427
 H          6.3027053465       -0.5303637869        2.6561163491
 C          3.5778189839       -0.5127927301       -2.7929243806
 H          3.2709777996       -0.6110569936       -3.8234774984
 C          4.7676993898       -1.0530924707       -2.3717688284
 H          5.4010273507       -1.5807670821       -3.0690511719
 C          2.7618452110        1.1680655436        1.7096924579
 H          2.1714441564        1.7154131996        2.4275574371
 C          3.9581042785        0.6343397959        2.1179538483
 H          4.2824682197        0.7619625115        3.1399349625
 C          8.1184550882       -1.9693691645        1.2517889464
 C          8.8864552089       -2.7109072340        0.1563737371
 H          8.3047736261       -3.5377068993       -0.2454398650
 H          9.7984350044       -3.1256572238        0.5769231157
 H          9.1728527493       -2.0400044661       -0.6504569198
 C          7.7860858677       -2.9659892295        2.3735999701
 H          7.1283442579       -3.7501552837        2.0046812600
 H          7.3043871046       -2.4811788412        3.2183287142
 H          8.7016092822       -3.4284985590        2.7308582091
 C          9.0112240377       -0.8453030843        1.7991561556
 H          8.5497308693       -0.3307767962        2.6374901541
 H          9.2248132279       -0.1150228952        1.0217332447
 H          9.9529014082       -1.2645421092        2.1416362924
 C          0.1656773711        2.3249455223        0.8631182202
 H          0.6315936884        3.3008558262        1.0397900744
 H          0.1221517668        1.8133597868        1.8289635192
 H         -0.9418030699        4.6354987582        0.0682040231
 C         -1.6508121784        3.8219417339        0.0282433926
 C         -3.5083294355        1.7371038218       -0.0647943050
 C         -2.9499994712        4.0845297465       -0.3612689944
 C         -1.2370335284        2.5421001758        0.3783755388
 C         -2.1688750968        1.4658647000        0.3188206028
 C         -3.9091435094        3.0544894839       -0.4065218747
 C         -4.4602866678        0.6940710009       -0.1015755716
 C         -6.3867793691       -1.4068865187       -0.1519699835
 C         -5.8044630703        0.9567902563       -0.4676251659
 C         -4.0884597993       -0.6281425007        0.2331680751
 C         -5.0610909615       -1.6496482671        0.2008254582
 C         -6.7380710187       -0.1027133645       -0.4835785525
 H         -4.7468249221       -2.6480693261        0.4651054659
 H         -7.7523225696        0.1326297546       -0.7637777138
 C         -1.8212345670        0.1311275519        0.6345912161
 H         -0.8049346288       -0.1026253109        0.9119876238
 C         -2.7464504594       -0.8802399139        0.5926615432
 H         -2.4538100951       -1.8892162415        0.8425209623
 C         -5.2518485419        3.2956842647       -0.7757339359
 H         -5.5460523490        4.3019717545       -1.0340184218
 C         -6.1740572531        2.2776104840       -0.8036050788
 H         -7.1969992497        2.4806557249       -1.0832448377
 C         -7.3799678397       -2.5539529860       -0.1583541127
 C         -6.8916960446       -3.6242904728       -1.1467719279
 H         -5.9288858023       -4.0365949597       -0.8574699154
 H         -6.8021156154       -3.2069366431       -2.1474007867
 H         -7.6079776968       -4.4401152390       -1.1805123971
 C         -8.7835618899       -2.1120375063       -0.5751873989
 H         -9.4475239657       -2.9720298415       -0.5624422914
 H         -8.7887033125       -1.7081213813       -1.5851513143
 H         -9.1885145381       -1.3749311338        0.1145249428
 C         -7.4544424541       -3.1455287009        1.2578444215
 H         -7.7698894689       -2.3876653331        1.9715871521
 H         -6.4980234583       -3.5467980146        1.5818590090
 H         -8.1799029110       -3.9537336259        1.2756382449
 H         -3.2425100131        5.0895930846       -0.6250970942
