77
       -105.32569084
 H         -0.1557127576        1.8605304307        0.3124689049
 C          0.8689400198        1.5192683274        0.2895476924
 C          3.5168612183        0.6411070016        0.2535044096
 C          1.1372118858        0.1821427670        0.5892724163
 C          1.8696517358        2.4100857194       -0.0211978280
 C          3.2167621490        1.9942948533       -0.0480098488
 C          2.4806414579       -0.2795447280        0.5760594964
 H          1.6321810130        3.4396107982       -0.2419633123
 C          4.8650130853        0.2178245550        0.2337634940
 C          7.5845207518       -0.6452700945        0.1906211024
 C          5.2053094055       -1.1227310995        0.5329811959
 C          5.9024379849        1.1293711457       -0.0830382478
 C          7.2370075235        0.6755365009       -0.0963288559
 C          6.5586586987       -1.5266618545        0.5044770382
 H          8.0054406539        1.3935241181       -0.3401864381
 H          6.7758033878       -2.5566601439        0.7378839563
 C          4.2640673047        2.8890032669       -0.3593338775
 H          4.0185176541        3.9161344646       -0.5839288409
 C          5.5714011650        2.4710329967       -0.3767879179
 H          6.3615210350        3.1670911863       -0.6152967507
 C          2.8554758239       -1.6138239542        0.8718791146
 H          2.1010783025       -2.3428348094        1.1238210637
 C          4.1648746806       -2.0203220203        0.8530412090
 H          4.4124636098       -3.0451531682        1.0863172334
 C          9.0435137077       -1.0571026801        0.1491792514
 C          9.8232118477       -0.2127511534        1.1694318595
 H          9.4234043194       -0.3593323517        2.1704750836
 H          9.7843991628        0.8474079825        0.9351080260
 H         10.8659504792       -0.5169661173        1.1698338177
 C          9.5875382099       -0.7985059775       -1.2647649114
 H          9.5392650677        0.2530310955       -1.5337662873
 H          9.0239001655       -1.3685435768       -2.0002431110
 H         10.6272122561       -1.1089370431       -1.3152460220
 C          9.2454129778       -2.5354413098        0.4848767649
 H          8.9040221001       -2.7633075513        1.4922302311
 H         10.3047122110       -2.7721711665        0.4359611454
 H          8.7320717769       -3.1772877549       -0.2278130650
 C         -0.0352490821       -0.6831421960        0.9557635032
 H         -0.3588002263       -0.3876860449        1.9562498773
 H          0.2484876244       -1.7364431937        1.0103435880
 H          0.2081718905       -0.8790162260       -1.6526473738
 C         -0.8260139249       -0.7158349228       -1.3867011752
 C         -3.4995909143       -0.3173450390       -0.6958659976
 C         -1.7778270713       -0.6677621345       -2.3783328880
 C         -1.1566756621       -0.5704921841       -0.0379342444
 C         -2.5141044915       -0.3691465534        0.3295514921
 C         -3.1363448253       -0.4660029264       -2.0589665023
 C         -4.8598421429       -0.1205347588       -0.3671578565
 C         -7.6040005257        0.2820687785        0.3036716095
 C         -5.8470101014       -0.0702740732       -1.3822947486
 C         -5.2627346244        0.0268557510        0.9813121338
 C         -6.6270938152        0.2257918793        1.2886852310
 C         -7.1950919074        0.1298285189       -1.0219377325
 H         -6.8925691248        0.3343538929        2.3280437174
 H         -7.9241639064        0.1634297809       -1.8174174165
 C         -2.9511204127       -0.2197907431        1.6693305013
 H         -2.2367173191       -0.2563218525        2.4770047501
 C         -4.2722018097       -0.0310033151        1.9843597392
 H         -4.5679431807        0.0764147260        3.0173149433
 C         -4.1342968294       -0.4156371695       -3.0568836639
 H         -3.8410536128       -0.5330867520       -4.0893321844
 C         -5.4536223929       -0.2232866973       -2.7305383320
 H         -6.2055364670       -0.1882141613       -3.5045331253
 C         -9.0734648159        0.4994266334        0.6092705278
 C         -9.3452297204        0.6492854181        2.1068027638
 H         -8.8239228570        1.5100799047        2.5199245735
 H         -9.0590307736       -0.2467516622        2.6531064112
 H        -10.4092328951        0.8034853501        2.2638580907
 C         -9.8697616364       -0.7062100512        0.0858651733
 H        -10.9224059284       -0.5737535412        0.3188091092
 H         -9.5271198310       -1.6237911409        0.5592278514
 H         -9.7772549582       -0.8191318552       -0.9907337488
 C         -9.5392988132        1.7795909053       -0.1023595861
 H        -10.5847800829        1.9624686966        0.1286490704
 H         -9.4440063221        1.7030076814       -1.1819273521
 H         -8.9592635470        2.6359411312        0.2349839098
 H         -1.4928310310       -0.7901284219       -3.4121880392
