77
       -105.32565013
 H          1.1494374456        4.6325146702        0.0613300245
 C          1.8169204047        3.7836901973        0.0726516747
 C          3.5674704250        1.6065258755        0.1135439385
 C          1.3179457697        2.5311210100        0.4100131851
 C          3.1488581024        3.9750099952       -0.2403266290
 C          4.0549145033        2.8972440845       -0.2172234543
 C          2.1954026092        1.4085453546        0.4184820128
 H          3.5077517416        4.9603978182       -0.4963185505
 C          4.4652369939        0.5163568152        0.1454946971
 C          6.2811403032       -1.6796580061        0.2342794307
 C          4.0068917817       -0.7805887226        0.4716546368
 C          5.8405517549        0.7057808832       -0.1416684802
 C          6.7179349420       -0.3996254064       -0.0897913277
 C          4.9261004116       -1.8502317073        0.5091399045
 H          7.7578209721       -0.2197296712       -0.3108885048
 H          4.5459075376       -2.8277158262        0.7649284332
 C          5.4278222511        3.0651948030       -0.5074268086
 H          5.7881353025        4.0517070954       -0.7581272574
 C          6.2966659610        2.0015087187       -0.4689186342
 H          7.3435131209        2.1487900066       -0.6885999493
 C          1.7617457883        0.0977148669        0.7277655023
 H          0.7201582164       -0.0803457498        0.9466095181
 C          2.6347577026       -0.9595399886        0.7527379920
 H          2.2765463810       -1.9488080565        0.9959149273
 C          7.2128195675       -2.8754117537        0.3004641394
 C          8.6595895170       -2.5108762326       -0.0357847655
 H          9.0599134852       -1.7855390626        0.6689418925
 H          8.7456950279       -2.1219825039       -1.0479837081
 H          9.2766347847       -3.4030498591        0.0264563970
 C          6.7301829335       -3.9335667796       -0.7037163851
 H          5.7319384421       -4.2925610491       -0.4684972025
 H          7.4044109670       -4.7849378860       -0.6851426482
 H          6.7220329457       -3.5263968168       -1.7124837223
 C          7.1722005001       -3.4499552561        1.7250350994
 H          7.8529260892       -4.2934259250        1.7955112369
 H          6.1788327917       -3.7978036758        1.9951538915
 H          7.4829016370       -2.6989922316        2.4480913948
 C         -0.1204532208        2.3901506445        0.8112343137
 H         -0.5506404252        3.3900867520        0.9369808902
 H         -0.1589147729        1.9016165481        1.7890464276
 H          0.3903853720        1.8708937152       -1.7813621850
 C         -0.5679010674        1.4747776161       -1.4801351155
 C         -3.0624390618        0.4667441768       -0.7293386746
 C         -1.3472327782        0.8218541936       -2.4128515447
 C         -0.9885112957        1.6452991851       -0.1652764074
 C         -2.2664608208        1.1514812415        0.2279537271
 C         -2.6048058895        0.2964852700       -2.0610124687
 C         -4.3275184432       -0.0466163097       -0.3654667727
 C         -6.8680698758       -1.1093245108        0.3770491798
 C         -5.1276165351       -0.7335631116       -1.3128951092
 C         -4.8193398492        0.1199133852        0.9497304355
 C         -6.0793907356       -0.4147613043        1.2920183688
 C         -6.3806392383       -1.2508985730       -0.9175851621
 H         -6.4256509292       -0.2709080238        2.3043703389
 H         -6.9608690314       -1.7706459510       -1.6631445445
 C         -2.7941053112        1.3199198326        1.5306504911
 H         -2.2274085677        1.8585603080        2.2737765367
 C         -4.0249725895        0.8243423230        1.8797734477
 H         -4.3990242662        0.9719417189        2.8818933595
 C         -3.4215569086       -0.3806057686       -2.9947246742
 H         -3.0646714536       -0.4965353232       -4.0071669875
 C         -4.6465068401       -0.8836740444       -2.6320378548
 H         -5.2575351158       -1.3997570066       -3.3573281209
 C         -8.2034076056       -1.6767387235        0.8200155361
 C         -7.9562658889       -2.6684667746        1.9678671768
 H         -7.2999833749       -3.4728368358        1.6423922147
 H         -8.9008380130       -3.1040976416        2.2805037292
 H         -7.5079361687       -2.1862165723        2.8321997807
 C         -8.9316815864       -2.4113290780       -0.3067792843
 H         -9.1590326233       -1.7426251032       -1.1339607194
 H         -9.8743151192       -2.7991005254        0.0695975729
 H         -8.3506177045       -3.2564061394       -0.6695912706
 C         -9.0943034954       -0.5242134738        1.3080210292
 H         -9.2484628253        0.2018245832        0.5127828365
 H         -8.6638194133       -0.0114099986        2.1637318173
 H        -10.0629182400       -0.9156222811        1.6053347491
 H         -0.9959324835        0.7117848896       -3.4276574043
