77
       -105.32556416
 H         -0.1754022183        2.2667192498       -1.4961466958
 C          0.7323050291        1.7631451037       -1.1986361264
 C          3.0974345285        0.4825771216       -0.4450944116
 C          1.0546648478        1.6935807920        0.1555308221
 C          1.5455454972        1.2164935283       -2.1665295028
 C          2.7409327632        0.5566900930       -1.8160548038
 C          2.2656237586        1.0600288702        0.5519491823
 H          1.2734041235        1.2929355643       -3.2083292971
 C          4.2979618088       -0.1670737037       -0.0805887537
 C          6.7039882038       -1.5049410052        0.6648236139
 C          4.6920348298       -0.2455876569        1.2760514391
 C          5.1308512171       -0.7478387652       -1.0686548362
 C          6.3137394202       -1.4041694959       -0.6711172478
 C          5.8881026561       -0.9137726925        1.6204993542
 H          6.9268617461       -1.8401396324       -1.4453870348
 H          6.1532935309       -0.9534111179        2.6648318342
 C          3.5902769406       -0.0169638025       -2.7877824666
 H          3.3104819959        0.0541779357       -3.8281820124
 C          4.7517106554       -0.6538765452       -2.4264412094
 H          5.3898075301       -1.0887993071       -3.1810380427
 C          2.6972312591        0.9840466514        1.8990227111
 H          2.1048525844        1.4369753878        2.6785028138
 C          3.8660173147        0.3567772421        2.2485198179
 H          4.1661554821        0.3190733337        3.2850632225
 C          7.9800512037       -2.2462781421        1.0146128567
 C          8.2557718532       -2.2614137746        2.5189556476
 H          7.4580604328       -2.7623356648        3.0632160094
 H          8.3859320562       -1.2540028330        2.9079972704
 H          9.1756381974       -2.8076023862        2.7087816219
 C          9.1607895481       -1.5635964193        0.3074827250
 H          9.0606618569       -1.5935232752       -0.7739326196
 H         10.0838856572       -2.0714924912        0.5716297034
 H          9.2414939153       -0.5239640517        0.6173215149
 C          7.8493319980       -3.6984760118        0.5280151205
 H          8.7463506028       -4.2511670997        0.7919491685
 H          7.7255989993       -3.7567252109       -0.5498596154
 H          6.9972668389       -4.1835448765        0.9995967302
 C          0.1488885800        2.3349250114        1.1698310824
 H          0.5952491111        3.2967052370        1.4467302559
 H          0.1144215854        1.7267101414        2.0779964417
 H         -1.0423410870        4.6963619671        0.7017131684
 C         -1.7201628655        3.8709625565        0.5421835497
 C         -3.4982356563        1.7529744273        0.1427722694
 C         -3.0279523654        4.1377859061        0.1855538551
 C         -1.2592411859        2.5705055764        0.7095426732
 C         -2.1501147126        1.4798964474        0.4928099004
 C         -3.9477277087        3.0898016731       -0.0116420569
 C         -4.4104118765        0.6911002875       -0.0464235892
 C         -6.2570119958       -1.4514495651       -0.4027673608
 C         -5.7633319143        0.9530268583       -0.3793349294
 C         -3.9895825814       -0.6504325089        0.1007914168
 C         -4.9230674732       -1.6924145942       -0.0815657228
 C         -6.6568091657       -0.1273735933       -0.5489921630
 H         -4.5714579069       -2.7058747493        0.0397081569
 H         -7.6792478339        0.1074466144       -0.7981647747
 C         -1.7534112724        0.1278792371        0.6213130524
 H         -0.7298035695       -0.1044810598        0.8720731038
 C         -2.6397139368       -0.9009740457        0.4308245616
 H         -2.3100846485       -1.9235988862        0.5389418754
 C         -5.2982274180        3.3309030535       -0.3511817297
 H         -5.6298014262        4.3519973695       -0.4665584294
 C         -6.1817479592        2.2935540563       -0.5277477914
 H         -7.2114472117        2.4961936744       -0.7817208029
 C         -7.2062676290       -2.6223095492       -0.5770010497
 C         -7.2483510255       -3.4206776810        0.7351642455
 H         -6.2761837337       -3.8319560233        0.9928936974
 H         -7.9451784754       -4.2477565993        0.6342764782
 H         -7.5840656137       -2.7894970563        1.5550320393
 C         -6.6843629570       -3.5137334015       -1.7146176427
 H         -5.7027536847       -3.9234614553       -1.4924922877
 H         -6.6211650536       -2.9497467385       -2.6427207576
 H         -7.3672069408       -4.3446748468       -1.8663541156
 C         -8.6286417006       -2.1778513901       -0.9211215359
 H         -9.0543058009       -1.5641159203       -0.1304370824
 H         -9.2603501623       -3.0550228131       -1.0311583107
 H         -8.6575008529       -1.6324876486       -1.8618010312
 H         -3.3576879808        5.1586117672        0.0650395036
