47
00000001
C      -1.398000   -1.306000    1.409000
C      -0.535000    1.202000    2.432000
C      -1.971000   -0.051000    0.823000
C      -0.491000   -1.226000    2.482000
C       0.018000   -0.016000    2.916000
C      -1.435000    1.229000    1.398000
H      -0.030000   -2.153000    2.835000
H      -0.116000    2.146000    2.792000
C      -1.971000   -0.051000   -0.823000
C       0.018000   -0.016000   -2.916000
C      -1.398000   -1.306000   -1.409000
C      -1.435000    1.229000   -1.398000
C      -0.535000    1.202000   -2.432000
C      -0.491000   -1.226000   -2.482000
H      -0.116000    2.146000   -2.792000
H      -0.030000   -2.153000   -2.835000
C      -1.526000   -2.504000    0.701000
H      -1.302000   -3.442000    1.215000
C      -1.526000   -2.504000   -0.701000
H      -1.302000   -3.442000   -1.215000
C      -1.701000    2.446000    0.683000
H      -1.671000    3.395000    1.225000
C      -1.701000    2.446000   -0.683000
H      -1.671000    3.395000   -1.225000
C       1.361000    0.033000    3.588000
H       1.366000    0.760000    4.417000
H       1.601000   -0.953000    4.016000
C       2.456000    0.440000    2.574000
H       2.293000    1.493000    2.290000
H       3.419000    0.421000    3.108000
C       1.361000    0.033000   -3.588000
H       1.366000    0.760000   -4.417000
H       1.601000   -0.953000   -4.016000
C       2.456000    0.440000   -2.574000
H       3.419000    0.421000   -3.108000
H       2.293000    1.493000   -2.290000
C       2.573000   -0.413000   -1.287000
H       2.110000   -1.402000   -1.442000
H       3.643000   -0.610000   -1.111000
C       2.011000    0.224000   -0.000000
H       0.906000    0.187000   -0.000000
H       2.278000    1.296000   -0.000000
C       2.573000   -0.413000    1.287000
H       3.643000   -0.610000    1.111000
H       2.110000   -1.402000    1.442000
H      -3.045000   -0.064000    1.046000
H      -3.045000   -0.064000   -1.046000
